%chk=DBU_Tripeptide_beta.chk
%mem=8000MB
%nprocshared=17
# opt M052X/6-311+G(d,p) scrf=smd

Title Card Required

0 1
N -2.7574 3.5319 1.8538
C -2.6176 2.2052 2.2819
C -3.422 1.1391 1.6548
C -1.7565 1.9056 3.2572
C -1.6637 4.2892 1.6378
N -2.8406 -0.0243 1.3013
O -4.6094 1.31 1.4569
O -0.5625 3.8526 1.899
C -1.8087 5.6782 1.0715
C -3.6393 -1.0829 0.6787
C -3.3022 -2.4068 1.315
N -4.2879 -3.2566 1.665
C -3.3285 -1.1428 -0.8182
N -0.9577 6.6035 1.8237
C -1.442 7.7995 2.2128
C -1.3853 5.6764 -0.3987
O -2.1438 -2.7074 1.512
C -0.5665 8.7514 2.9866
O -2.5823 8.1098 1.9404
C -3.9601 -4.5436 2.2836
C -1.0176 3.006 3.9743
H -3.6415 3.9055 1.7131
H -1.586 0.8744 3.5292
H -1.8933 -0.1608 1.4591
H -2.8486 5.9957 1.1499
H -4.6988 -0.8704 0.8216
H -5.2143 -3.0162 1.5074
H -3.9227 -1.9303 -1.2815
H -3.5722 -0.1852 -1.2785
H -2.269 -1.3553 -0.9612
H -0.0456 6.3554 2.0417
H -2.0185 4.9879 -0.9583
H -1.4902 6.681 -0.8083
H -0.3455 5.3589 -0.477
H 0.4157 8.3025 3.1351
H -0.4601 9.682 2.4291
H -1.0218 8.958 3.9551
H -4.8794 -5.0898 2.4947
H -3.3394 -5.1263 1.603
H -3.4177 -4.3721 3.2134
H 0.0549 2.8194 3.9193
H -1.2445 3.9627 3.5037
H -1.3288 3.0321 5.0186

D 12 11 10 6 F
D 11 10 6 3 F
D 1 5 9 14 F
D 5 9 14 15 F

