%chk=DHA_Tripeptide_beta.chk
%mem=8000MB
%nprocshared=12
# opt M052X/6-311+G(d,p) scrf=smd

Title Card Required

0 1
N -0.5814 -1.0 -1.4264
C -1.7626 -0.38 -1.8547
C -2.9755 -0.445 -1.0171
C -1.7907 0.2697 -3.0208
C 0.595 -0.3497 -1.5251
N -3.7146 0.6637 -0.8142
O -3.3083 -1.4986 -0.5098
O 0.6433 0.7392 -2.0572
C 1.8504 -0.9756 -0.9745
C -4.9189 0.5991 0.0174
C -6.0407 1.3391 -0.6646
N -7.2713 0.7926 -0.7226
C -4.6354 1.2426 1.3762
N 2.9363 -0.8286 -1.9467
C 3.7396 -1.875 -2.2231
C 2.2373 -0.2785 0.3315
O -5.836 2.4265 -1.1613
C 4.8566 -1.7238 -3.2233
O 3.5635 -2.9383 -1.6669
C -8.3617 1.512 -1.3856
H -0.6098 -1.8986 -1.0626
H -2.675 0.8164 -3.3131
H -0.9291 0.2483 -3.6717
H -3.4492 1.5043 -1.219
H 1.6748 -2.0342 -0.783
H -5.2056 -0.4426 0.1615
H -7.435 -0.0771 -0.3253
H -4.3487 2.2844 1.2321
H -5.5314 1.1947 1.9951
H -3.8241 0.7075 1.8695
H 3.0773 0.0218 -2.3916
H 2.4128 0.7801 0.1401
H 1.4293 -0.3878 1.0549
H 3.1453 -0.7312 0.7298
H 5.7618 -1.3984 -2.7106
H 5.0397 -2.6812 -3.7111
H 4.5765 -0.9825 -3.9716
H -9.2741 0.9179 -1.3325
H -8.5216 2.4684 -0.8878
H -8.101 1.6849 -2.4297

