%chk=2KT_3D.chk
%mem=8000MB
%nprocshared=12
# opt M052X/6-311+G(d,p) scrf=smd

Title Card Required

0 1
N -3.6187 1.2507 0.7306
C -4.6532 0.3934 1.3146
C -2.3538 0.7992 0.618
O -2.072 -0.3168 1.0002
C -1.2896 1.681 0.0173
N -0.0111 0.9658 0.0074
C 1.1468 1.6555 -0.0
C -1.6801 2.0475 -1.4159
C 2.4479 0.9277 -0.0163
O 1.1304 2.8691 0.0067
C 3.7426 1.6989 -0.0246
O 2.4643 -0.2799 -0.023
C 4.9188 0.7206 -0.041
H -3.8441 2.1432 0.4249
H -4.375 0.1323 2.3356
H -5.6045 0.9255 1.322
H -4.7499 -0.5154 0.7206
H -1.1929 2.5898 0.6112
H 0.0021 -0.0041 0.002
H -2.6314 2.5796 -1.4085
H -0.9104 2.6853 -1.8504
H -1.7768 1.1387 -2.0098
H 3.7833 2.3311 -0.9116
H 3.8003 2.3215 0.8683
H 4.8611 0.098 -0.9339
H 5.8553 1.2784 -0.047
H 4.8781 0.0885 0.846

