 Entering Gaussian System, Link 0=g16
 Input=2KT_3D.gjf
 Output=2KT_3D.log
 Initial command:
 /sb/apps/g16/B.01-SSE4.2/g16/l1.exe "/tmp/Gau-11954.inp" -scrdir="/tmp/"
 Entering Link 1 = /sb/apps/g16/B.01-SSE4.2/g16/l1.exe PID=     11955.
  
 Copyright (c) 1988-2017, Gaussian, Inc.  All Rights Reserved.
  
 This is part of the Gaussian(R) 16 program.  It is based on
 the Gaussian(R) 09 system (copyright 2009, Gaussian, Inc.),
 the Gaussian(R) 03 system (copyright 2003, Gaussian, Inc.),
 the Gaussian(R) 98 system (copyright 1998, Gaussian, Inc.),
 the Gaussian(R) 94 system (copyright 1995, Gaussian, Inc.),
 the Gaussian 92(TM) system (copyright 1992, Gaussian, Inc.),
 the Gaussian 90(TM) system (copyright 1990, Gaussian, Inc.),
 the Gaussian 88(TM) system (copyright 1988, Gaussian, Inc.),
 the Gaussian 86(TM) system (copyright 1986, Carnegie Mellon
 University), and the Gaussian 82(TM) system (copyright 1983,
 Carnegie Mellon University). Gaussian is a federally registered
 trademark of Gaussian, Inc.
  
 This software contains proprietary and confidential information,
 including trade secrets, belonging to Gaussian, Inc.
  
 This software is provided under written license and may be
 used, copied, transmitted, or stored only in accord with that
 written license.
  
 The following legend is applicable only to US Government
 contracts under FAR:
  
                    RESTRICTED RIGHTS LEGEND
  
 Use, reproduction and disclosure by the US Government is
 subject to restrictions as set forth in subparagraphs (a)
 and (c) of the Commercial Computer Software - Restricted
 Rights clause in FAR 52.227-19.
  
 Gaussian, Inc.
 340 Quinnipiac St., Bldg. 40, Wallingford CT 06492
  
  
 ---------------------------------------------------------------
 Warning -- This program may not be used in any manner that
 competes with the business of Gaussian, Inc. or will provide
 assistance to any competitor of Gaussian, Inc.  The licensee
 of this program is prohibited from giving any competitor of
 Gaussian, Inc. access to this program.  By using this program,
 the user acknowledges that Gaussian, Inc. is engaged in the
 business of creating and licensing software in the field of
 computational chemistry and represents and warrants to the
 licensee that it is not a competitor of Gaussian, Inc. and that
 it will not use this program in any manner prohibited above.
 ---------------------------------------------------------------
  

 Cite this work as:
 Gaussian 16, Revision B.01,
 M. J. Frisch, G. W. Trucks, H. B. Schlegel, G. E. Scuseria, 
 M. A. Robb, J. R. Cheeseman, G. Scalmani, V. Barone, 
 G. A. Petersson, H. Nakatsuji, X. Li, M. Caricato, A. V. Marenich, 
 J. Bloino, B. G. Janesko, R. Gomperts, B. Mennucci, H. P. Hratchian, 
 J. V. Ortiz, A. F. Izmaylov, J. L. Sonnenberg, D. Williams-Young, 
 F. Ding, F. Lipparini, F. Egidi, J. Goings, B. Peng, A. Petrone, 
 T. Henderson, D. Ranasinghe, V. G. Zakrzewski, J. Gao, N. Rega, 
 G. Zheng, W. Liang, M. Hada, M. Ehara, K. Toyota, R. Fukuda, 
 J. Hasegawa, M. Ishida, T. Nakajima, Y. Honda, O. Kitao, H. Nakai, 
 T. Vreven, K. Throssell, J. A. Montgomery, Jr., J. E. Peralta, 
 F. Ogliaro, M. J. Bearpark, J. J. Heyd, E. N. Brothers, K. N. Kudin, 
 V. N. Staroverov, T. A. Keith, R. Kobayashi, J. Normand, 
 K. Raghavachari, A. P. Rendell, J. C. Burant, S. S. Iyengar, 
 J. Tomasi, M. Cossi, J. M. Millam, M. Klene, C. Adamo, R. Cammi, 
 J. W. Ochterski, R. L. Martin, K. Morokuma, O. Farkas, 
 J. B. Foresman, and D. J. Fox, Gaussian, Inc., Wallingford CT, 2016.
 
 ******************************************
 Gaussian 16:  ES64L-G16RevB.01 20-Dec-2017
                22-Dec-2023 
 ******************************************
 %chk=2KT_3D.chk
 %mem=8000MB
 %nprocshared=12
 Will use up to   12 processors via shared memory.
 ---------------------------------
 # opt M052X/6-311+G(d,p) scrf=smd
 ---------------------------------
 1/18=20,19=15,26=3,38=1/1,3;
 2/9=110,12=2,17=6,18=5,40=1/2;
 3/5=4,6=6,7=111,11=2,25=1,30=1,70=32201,71=1,74=-38/1,2,3;
 4//1;
 5/5=2,38=5/2;
 6/7=2,8=2,9=2,10=2,28=1/1;
 7//1,2,3,16;
 1/18=20,19=15,26=3/3(2);
 2/9=110/2;
 99//99;
 2/9=110/2;
 3/5=4,6=6,7=111,11=2,25=1,30=1,70=32205,71=1,74=-38/1,2,3;
 4/5=5,16=3,69=1/1;
 5/5=2,38=5/2;
 7//1,2,3,16;
 1/18=20,19=15,26=3/3(-5);
 2/9=110/2;
 6/7=2,8=2,9=2,10=2,19=2,28=1/1;
 99/9=1/99;
 -------------------
 Title Card Required
 -------------------
 Symbolic Z-matrix:
 Charge =  0 Multiplicity = 1
 N                    -3.6187    1.2507    0.7306 
 C                    -4.6532    0.3934    1.3146 
 C                    -2.3538    0.7992    0.618 
 O                    -2.072    -0.3168    1.0002 
 C                    -1.2896    1.681     0.0173 
 N                    -0.0111    0.9658    0.0074 
 C                     1.1468    1.6555    0. 
 C                    -1.6801    2.0475   -1.4159 
 C                     2.4479    0.9277   -0.0163 
 O                     1.1304    2.8691    0.0067 
 C                     3.7426    1.6989   -0.0246 
 O                     2.4643   -0.2799   -0.023 
 C                     4.9188    0.7206   -0.041 
 H                    -3.8441    2.1432    0.4249 
 H                    -4.375     0.1323    2.3356 
 H                    -5.6045    0.9255    1.322 
 H                    -4.7499   -0.5154    0.7206 
 H                    -1.1929    2.5898    0.6112 
 H                     0.0021   -0.0041    0.002 
 H                    -2.6314    2.5796   -1.4085 
 H                    -0.9104    2.6853   -1.8504 
 H                    -1.7768    1.1387   -2.0098 
 H                     3.7833    2.3311   -0.9116 
 H                     3.8003    2.3215    0.8683 
 H                     4.8611    0.098    -0.9339 
 H                     5.8553    1.2784   -0.047 
 H                     4.8781    0.0885    0.846 
 

 GradGradGradGradGradGradGradGradGradGradGradGradGradGradGradGradGradGrad
 Berny optimization.
 Initialization pass.
                           ----------------------------
                           !    Initial Parameters    !
                           ! (Angstroms and Degrees)  !
 --------------------------                            --------------------------
 ! Name  Definition              Value          Derivative Info.                !
 --------------------------------------------------------------------------------
 ! R1    R(1,2)                  1.465          estimate D2E/DX2                !
 ! R2    R(1,3)                  1.3478         estimate D2E/DX2                !
 ! R3    R(1,14)                 0.97           estimate D2E/DX2                !
 ! R4    R(2,15)                 1.09           estimate D2E/DX2                !
 ! R5    R(2,16)                 1.09           estimate D2E/DX2                !
 ! R6    R(2,17)                 1.09           estimate D2E/DX2                !
 ! R7    R(3,4)                  1.2128         estimate D2E/DX2                !
 ! R8    R(3,5)                  1.507          estimate D2E/DX2                !
 ! R9    R(5,6)                  1.465          estimate D2E/DX2                !
 ! R10   R(5,8)                  1.53           estimate D2E/DX2                !
 ! R11   R(5,18)                 1.0899         estimate D2E/DX2                !
 ! R12   R(6,7)                  1.3478         estimate D2E/DX2                !
 ! R13   R(6,19)                 0.97           estimate D2E/DX2                !
 ! R14   R(7,9)                  1.4909         estimate D2E/DX2                !
 ! R15   R(7,10)                 1.2137         estimate D2E/DX2                !
 ! R16   R(8,20)                 1.09           estimate D2E/DX2                !
 ! R17   R(8,21)                 1.09           estimate D2E/DX2                !
 ! R18   R(8,22)                 1.0899         estimate D2E/DX2                !
 ! R19   R(9,11)                 1.507          estimate D2E/DX2                !
 ! R20   R(9,12)                 1.2077         estimate D2E/DX2                !
 ! R21   R(11,13)                1.53           estimate D2E/DX2                !
 ! R22   R(11,23)                1.09           estimate D2E/DX2                !
 ! R23   R(11,24)                1.0901         estimate D2E/DX2                !
 ! R24   R(13,25)                1.0901         estimate D2E/DX2                !
 ! R25   R(13,26)                1.0901         estimate D2E/DX2                !
 ! R26   R(13,27)                1.0899         estimate D2E/DX2                !
 ! A1    A(2,1,3)              119.9994         estimate D2E/DX2                !
 ! A2    A(2,1,14)             120.0001         estimate D2E/DX2                !
 ! A3    A(3,1,14)             120.0004         estimate D2E/DX2                !
 ! A4    A(1,2,15)             109.473          estimate D2E/DX2                !
 ! A5    A(1,2,16)             109.4704         estimate D2E/DX2                !
 ! A6    A(1,2,17)             109.4702         estimate D2E/DX2                !
 ! A7    A(15,2,16)            109.4712         estimate D2E/DX2                !
 ! A8    A(15,2,17)            109.4748         estimate D2E/DX2                !
 ! A9    A(16,2,17)            109.4678         estimate D2E/DX2                !
 ! A10   A(1,3,4)              119.9991         estimate D2E/DX2                !
 ! A11   A(1,3,5)              120.0029         estimate D2E/DX2                !
 ! A12   A(4,3,5)              119.998          estimate D2E/DX2                !
 ! A13   A(3,5,6)              109.4705         estimate D2E/DX2                !
 ! A14   A(3,5,8)              109.4709         estimate D2E/DX2                !
 ! A15   A(3,5,18)             109.4723         estimate D2E/DX2                !
 ! A16   A(6,5,8)              109.4726         estimate D2E/DX2                !
 ! A17   A(6,5,18)             109.4701         estimate D2E/DX2                !
 ! A18   A(8,5,18)             109.471          estimate D2E/DX2                !
 ! A19   A(5,6,7)              119.9983         estimate D2E/DX2                !
 ! A20   A(5,6,19)             120.0038         estimate D2E/DX2                !
 ! A21   A(7,6,19)             119.9973         estimate D2E/DX2                !
 ! A22   A(6,7,9)              120.0            estimate D2E/DX2                !
 ! A23   A(6,7,10)             120.0028         estimate D2E/DX2                !
 ! A24   A(9,7,10)             119.9972         estimate D2E/DX2                !
 ! A25   A(5,8,20)             109.4705         estimate D2E/DX2                !
 ! A26   A(5,8,21)             109.4724         estimate D2E/DX2                !
 ! A27   A(5,8,22)             109.471          estimate D2E/DX2                !
 ! A28   A(20,8,21)            109.4727         estimate D2E/DX2                !
 ! A29   A(20,8,22)            109.4688         estimate D2E/DX2                !
 ! A30   A(21,8,22)            109.4719         estimate D2E/DX2                !
 ! A31   A(7,9,11)             119.9995         estimate D2E/DX2                !
 ! A32   A(7,9,12)             120.0011         estimate D2E/DX2                !
 ! A33   A(11,9,12)            119.9994         estimate D2E/DX2                !
 ! A34   A(9,11,13)            109.4697         estimate D2E/DX2                !
 ! A35   A(9,11,23)            109.4736         estimate D2E/DX2                !
 ! A36   A(9,11,24)            109.4663         estimate D2E/DX2                !
 ! A37   A(13,11,23)           109.4776         estimate D2E/DX2                !
 ! A38   A(13,11,24)           109.4694         estimate D2E/DX2                !
 ! A39   A(23,11,24)           109.4707         estimate D2E/DX2                !
 ! A40   A(11,13,25)           109.4694         estimate D2E/DX2                !
 ! A41   A(11,13,26)           109.4713         estimate D2E/DX2                !
 ! A42   A(11,13,27)           109.4752         estimate D2E/DX2                !
 ! A43   A(25,13,26)           109.4657         estimate D2E/DX2                !
 ! A44   A(25,13,27)           109.475          estimate D2E/DX2                !
 ! A45   A(26,13,27)           109.4708         estimate D2E/DX2                !
 ! D1    D(3,1,2,15)            60.0028         estimate D2E/DX2                !
 ! D2    D(3,1,2,16)          -179.9966         estimate D2E/DX2                !
 ! D3    D(3,1,2,17)           -60.0019         estimate D2E/DX2                !
 ! D4    D(14,1,2,15)         -120.0031         estimate D2E/DX2                !
 ! D5    D(14,1,2,16)           -0.0025         estimate D2E/DX2                !
 ! D6    D(14,1,2,17)          119.9921         estimate D2E/DX2                !
 ! D7    D(2,1,3,4)             -0.0028         estimate D2E/DX2                !
 ! D8    D(2,1,3,5)           -179.9992         estimate D2E/DX2                !
 ! D9    D(14,1,3,4)          -179.9968         estimate D2E/DX2                !
 ! D10   D(14,1,3,5)             0.0068         estimate D2E/DX2                !
 ! D11   D(1,3,5,6)            179.996          estimate D2E/DX2                !
 ! D12   D(1,3,5,8)            -60.003          estimate D2E/DX2                !
 ! D13   D(1,3,5,18)            59.9972         estimate D2E/DX2                !
 ! D14   D(4,3,5,6)             -0.0004         estimate D2E/DX2                !
 ! D15   D(4,3,5,8)            120.0006         estimate D2E/DX2                !
 ! D16   D(4,3,5,18)          -119.9992         estimate D2E/DX2                !
 ! D17   D(3,5,6,7)           -155.2789         estimate D2E/DX2                !
 ! D18   D(3,5,6,19)            25.0056         estimate D2E/DX2                !
 ! D19   D(8,5,6,7)             84.7212         estimate D2E/DX2                !
 ! D20   D(8,5,6,19)           -94.9944         estimate D2E/DX2                !
 ! D21   D(18,5,6,7)           -35.2787         estimate D2E/DX2                !
 ! D22   D(18,5,6,19)          145.0058         estimate D2E/DX2                !
 ! D23   D(3,5,8,20)            59.9974         estimate D2E/DX2                !
 ! D24   D(3,5,8,21)           179.9996         estimate D2E/DX2                !
 ! D25   D(3,5,8,22)           -59.999          estimate D2E/DX2                !
 ! D26   D(6,5,8,20)           179.9971         estimate D2E/DX2                !
 ! D27   D(6,5,8,21)           -60.0007         estimate D2E/DX2                !
 ! D28   D(6,5,8,22)            60.0007         estimate D2E/DX2                !
 ! D29   D(18,5,8,20)          -60.0035         estimate D2E/DX2                !
 ! D30   D(18,5,8,21)           59.9986         estimate D2E/DX2                !
 ! D31   D(18,5,8,22)          180.0            estimate D2E/DX2                !
 ! D32   D(5,6,7,9)           -179.7238         estimate D2E/DX2                !
 ! D33   D(5,6,7,10)             0.2814         estimate D2E/DX2                !
 ! D34   D(19,6,7,9)            -0.0082         estimate D2E/DX2                !
 ! D35   D(19,6,7,10)          179.997          estimate D2E/DX2                !
 ! D36   D(6,7,9,11)           179.9989         estimate D2E/DX2                !
 ! D37   D(6,7,9,12)             0.007          estimate D2E/DX2                !
 ! D38   D(10,7,9,11)           -0.0063         estimate D2E/DX2                !
 ! D39   D(10,7,9,12)         -179.9982         estimate D2E/DX2                !
 ! D40   D(7,9,11,13)          179.9987         estimate D2E/DX2                !
 ! D41   D(7,9,11,23)          -59.9929         estimate D2E/DX2                !
 ! D42   D(7,9,11,24)           60.0049         estimate D2E/DX2                !
 ! D43   D(12,9,11,13)          -0.0094         estimate D2E/DX2                !
 ! D44   D(12,9,11,23)         119.999          estimate D2E/DX2                !
 ! D45   D(12,9,11,24)        -120.0032         estimate D2E/DX2                !
 ! D46   D(9,11,13,25)          60.0081         estimate D2E/DX2                !
 ! D47   D(9,11,13,26)        -179.9998         estimate D2E/DX2                !
 ! D48   D(9,11,13,27)         -59.9978         estimate D2E/DX2                !
 ! D49   D(23,11,13,25)        -59.9978         estimate D2E/DX2                !
 ! D50   D(23,11,13,26)         59.9943         estimate D2E/DX2                !
 ! D51   D(23,11,13,27)        179.9963         estimate D2E/DX2                !
 ! D52   D(24,11,13,25)        180.0            estimate D2E/DX2                !
 ! D53   D(24,11,13,26)        -60.0079         estimate D2E/DX2                !
 ! D54   D(24,11,13,27)         59.9941         estimate D2E/DX2                !
 --------------------------------------------------------------------------------
 Trust Radius=3.00D-01 FncErr=1.00D-07 GrdErr=1.00D-06 EigMax=2.50D+02 EigMin=1.00D-04
 Number of steps in this run=    135 maximum allowed number of steps=    162.
 GradGradGradGradGradGradGradGradGradGradGradGradGradGradGradGradGradGrad

                          Input orientation:                          
 ---------------------------------------------------------------------
 Center     Atomic      Atomic             Coordinates (Angstroms)
 Number     Number       Type             X           Y           Z
 ---------------------------------------------------------------------
      1          7           0       -3.618700    1.250700    0.730600
      2          6           0       -4.653200    0.393400    1.314600
      3          6           0       -2.353800    0.799200    0.618000
      4          8           0       -2.072000   -0.316800    1.000200
      5          6           0       -1.289600    1.681000    0.017300
      6          7           0       -0.011100    0.965800    0.007400
      7          6           0        1.146800    1.655500    0.000000
      8          6           0       -1.680100    2.047500   -1.415900
      9          6           0        2.447900    0.927700   -0.016300
     10          8           0        1.130400    2.869100    0.006700
     11          6           0        3.742600    1.698900   -0.024600
     12          8           0        2.464300   -0.279900   -0.023000
     13          6           0        4.918800    0.720600   -0.041000
     14          1           0       -3.844100    2.143200    0.424900
     15          1           0       -4.375000    0.132300    2.335600
     16          1           0       -5.604500    0.925500    1.322000
     17          1           0       -4.749900   -0.515400    0.720600
     18          1           0       -1.192900    2.589800    0.611200
     19          1           0        0.002100   -0.004100    0.002000
     20          1           0       -2.631400    2.579600   -1.408500
     21          1           0       -0.910400    2.685300   -1.850400
     22          1           0       -1.776800    1.138700   -2.009800
     23          1           0        3.783300    2.331100   -0.911600
     24          1           0        3.800300    2.321500    0.868300
     25          1           0        4.861100    0.098000   -0.933900
     26          1           0        5.855300    1.278400   -0.047000
     27          1           0        4.878100    0.088500    0.846000
 ---------------------------------------------------------------------
                    Distance matrix (angstroms):
                    1          2          3          4          5
     1  N    0.000000
     2  C    1.464995   0.000000
     3  C    1.347777   2.436630   0.000000
     4  O    2.218563   2.695519   1.212825   0.000000
     5  C    2.473593   3.828147   1.506962   2.359968   0.000000
     6  N    3.690388   4.856491   2.426691   2.622599   1.464982
     7  C    4.838143   6.079562   3.656415   3.905258   2.436595
     8  C    3.000087   4.362454   2.479692   3.403093   1.529992
     9  C    6.120933   7.244473   4.845118   4.797035   3.812807
    10  O    5.069241   6.425708   4.098515   4.625188   2.695940
    11  C    7.413498   8.601584   6.195844   6.238817   5.032406
    12  O    6.317716   7.273329   4.978898   4.650410   4.235389
    13  C    8.588672   9.673050   7.302819   7.143639   6.282515
    14  H    0.969956   2.123207   2.016090   3.085921   2.627782
    15  H    2.097340   1.089958   2.734987   2.699776   4.158447
    16  H    2.097358   1.090026   3.328456   3.758380   4.570709
    17  H    2.097337   1.090002   2.734958   2.699772   4.158423
    18  H    2.773437   4.158440   2.134006   3.061448   1.089947
    19  H    3.900715   4.853117   2.564179   2.322945   2.123272
    20  H    2.704900   4.035148   2.711750   3.808398   2.154255
    21  H    4.006810   5.410969   3.425460   4.299749   2.154232
    22  H    3.303775   4.458787   2.711738   3.356445   2.154202
    23  H    7.658570   8.937851   6.507718   6.704543   5.198057
    24  H    7.497142   8.682074   6.344525   6.439094   5.200146
    25  H    8.718158   9.780844   7.413154   7.209763   6.421976
    26  H    9.505898  10.633238   8.249920   8.153734   7.156523
    27  H    8.576691   9.547682   7.270313   6.963615   6.423653
                    6          7          8          9         10
     6  N    0.000000
     7  C    1.347766   0.000000
     8  C    2.445694   3.185875   0.000000
     9  C    2.459409   1.490912   4.500357   0.000000
    10  O    2.219363   1.213729   3.255415   2.346352   0.000000
    11  C    3.824751   2.596279   5.609181   1.507006   2.862505
    12  O    2.771335   2.341390   4.953081   1.207730   3.419996
    13  C    4.936231   3.886348   6.869971   2.479687   4.355491
    14  H    4.031435   5.032641   2.842639   6.423501   5.044549
    15  H    5.015861   6.185907   5.000423   7.260583   6.574441
    16  H    5.745948   6.918138   4.914865   8.162855   7.132074
    17  H    5.015858   6.324804   4.533956   7.377932   6.822201
    18  H    2.097284   2.592427   2.154202   4.051143   2.416847
    19  H    0.970005   2.016089   3.008205   2.617351   3.086804
    20  H    3.387491   4.136741   1.090026   5.519627   4.029608
    21  H    2.686418   2.952379   1.089962   4.210850   2.765405
    22  H    2.686389   3.585222   1.089947   4.676179   3.938574
    23  H    4.135949   2.870293   5.493950   2.134101   2.858426
    24  H    4.135921   2.870290   5.943688   2.134053   2.858424
    25  H    5.037604   4.134489   6.842527   2.711812   4.741503
    26  H    5.874975   4.723811   7.697250   3.425538   4.985769
    27  H    5.037577   4.134465   7.208596   2.711769   4.741457
                   11         12         13         14         15
    11  C    0.000000
    12  O    2.355781   0.000000
    13  C    1.529963   2.650640   0.000000
    14  H    7.612980   6.772587   8.889841   0.000000
    15  H    8.597686   7.246304   9.610881   2.824243   0.000000
    16  H    9.475218   8.268467  10.613180   2.320903   1.779950
    17  H    8.808008   7.256244   9.777090   2.824193   1.779969
    18  H    5.055404   4.691748   6.424340   2.694999   4.374771
    19  H    4.110019   2.477725   4.970008   4.425268   4.962187
    20  H    6.581693   6.005207   7.895027   2.241081   4.800802
    21  H    5.094795   4.849784   6.411985   3.751994   6.003654
    22  H    5.892251   4.893540   6.991569   3.348211   5.161975
    23  H    1.090001   3.057236   2.154301   7.745887   9.051900
    24  H    1.090060   3.057220   2.154240   7.659324   8.589592
    25  H    2.154240   2.591756   1.090060   9.044871   9.797773
    26  H    2.154257   3.731991   1.090050   9.749304  10.566426
    27  H    2.154227   2.591777   1.089943   8.970836   9.372336
                   16         17         18         19         20
    16  H    0.000000
    17  H    1.779948   0.000000
    18  H    4.768369   4.722974   0.000000
    19  H    5.834425   4.833148   2.920183   0.000000
    20  H    4.362454   4.312787   2.479632   3.949726   0.000000
    21  H    5.932587   5.621057   2.479597   3.390710   1.779969
    22  H    5.079137   4.362391   3.052257   2.918530   1.779915
    23  H    9.751691   9.142327   5.210414   4.537102   6.438714
    24  H    9.518662   9.009758   5.007008   4.537093   6.827679
    25  H   10.737906   9.771640   6.726613   4.949365   7.907031
    26  H   11.546676  10.783190   7.199314   5.992258   8.693151
    27  H   10.526730   9.647736   6.570287   4.949372   8.226843
                   21         22         23         24         25
    21  H    0.000000
    22  H    1.779896   0.000000
    23  H    4.799752   5.791595   0.000000
    24  H    5.451089   6.386432   1.780007   0.000000
    25  H    6.390955   6.804582   2.479695   3.052405   0.000000
    26  H    7.141871   7.881691   2.479696   2.479689   1.779991
    27  H    6.893524   7.317527   3.052376   2.479605   1.780007
                   26         27
    26  H    0.000000
    27  H    1.779952   0.000000
 Stoichiometry    C8H14N2O3
 Framework group  C1[X(C8H14N2O3)]
 Deg. of freedom    75
 Full point group                 C1      NOp   1
 Largest Abelian subgroup         C1      NOp   1
 Largest concise Abelian subgroup C1      NOp   1
                         Standard orientation:                         
 ---------------------------------------------------------------------
 Center     Atomic      Atomic             Coordinates (Angstroms)
 Number     Number       Type             X           Y           Z
 ---------------------------------------------------------------------
      1          7           0        3.637008    0.150633   -0.296411
      2          6           0        4.756132   -0.793417   -0.346799
      3          6           0        2.383956   -0.300150   -0.088664
      4          8           0        2.182880   -1.487346    0.056514
      5          6           0        1.232713    0.670874   -0.036838
      6          7           0       -0.013897   -0.061830    0.198276
      7          6           0       -1.189888    0.464915   -0.196765
      8          6           0        1.459099    1.670095    1.099465
      9          6           0       -2.459183   -0.277914    0.048013
     10          8           0       -1.215662    1.543954   -0.751878
     11          6           0       -3.774115    0.311089   -0.393685
     12          8           0       -2.433620   -1.351609    0.600405
     13          6           0       -4.910445   -0.644983   -0.025626
     14          1           0        3.797846    1.100094   -0.412474
     15          1           0        4.594847   -1.505262   -1.156289
     16          1           0        5.683710   -0.248301   -0.521743
     17          1           0        4.822589   -1.328981    0.600227
     18          1           0        1.166246    1.206483   -0.983775
     19          1           0        0.006604   -0.924176    0.641952
     20          1           0        2.386676    2.215211    0.924521
     21          1           0        0.626439    2.372440    1.136969
     22          1           0        1.525566    1.134486    2.046403
     23          1           0       -3.928968    1.268365    0.104055
     24          1           0       -3.760678    0.460900   -1.473317
     25          1           0       -4.923881   -0.794794    1.054007
     26          1           0       -5.861577   -0.218970   -0.345108
     27          1           0       -4.755595   -1.602170   -0.523411
 ---------------------------------------------------------------------
 Rotational constants (GHZ):           2.1634130           0.3208937           0.2952755
 Standard basis: 6-311+G(d,p) (5D, 7F)
 There are   383 symmetry adapted cartesian basis functions of A   symmetry.
 There are   370 symmetry adapted basis functions of A   symmetry.
   370 basis functions,   580 primitive gaussians,   383 cartesian basis functions
    50 alpha electrons       50 beta electrons
       nuclear repulsion energy       813.3025706832 Hartrees.
 NAtoms=   27 NActive=   27 NUniq=   27 SFac= 1.00D+00 NAtFMM=   60 NAOKFM=F Big=F
 Integral buffers will be    131072 words long.
 Raffenetti 2 integral format.
 Two-electron integral symmetry is turned on.
 ------------------------------------------------------------------------------
 Polarizable Continuum Model (PCM)
 =================================
 Model                : PCM.
 Atomic radii         : SMD-Coulomb.
 Polarization charges : Total charges.
 Charge compensation  : None.
 Solution method      : On-the-fly selection.
 Cavity type          : VdW (van der Waals Surface) (Alpha=1.000).
 Cavity algorithm     : GePol (No added spheres)
                        Default sphere list used, NSphG=   27.
                        Lebedev-Laikov grids with approx.  5.0 points / Ang**2.
                        Smoothing algorithm: York/Karplus (Gamma=1.0000).
                        Polarization charges: spherical gaussians, with
                                              point-specific exponents (IZeta= 3).
                        Self-potential: point-specific (ISelfS= 7).
                        Self-field    : sphere-specific E.n sum rule (ISelfD= 2).
 1st derivatives      : Analytical E(r).r(x)/FMM algorithm (CHGder, D1EAlg=3).
                        Cavity 1st derivative terms included.
 Solvent              : Water, Eps=  78.355300 Eps(inf)=   1.777849
 ------------------------------------------------------------------------------
 ------------------------------------------------------------------------------
 Atomic radii for non-electrostatic terms: SMD-CDS.
 ------------------------------------------------------------------------------
 Nuclear repulsion after PCM non-electrostatic terms =      813.3128453998 Hartrees.
 One-electron integrals computed using PRISM.
 NBasis=   370 RedAO= T EigKep=  2.94D-06  NBF=   370
 NBsUse=   370 1.00D-06 EigRej= -1.00D+00 NBFU=   370
 ExpMin= 4.38D-02 ExpMax= 8.59D+03 ExpMxC= 1.30D+03 IAcc=3 IRadAn=         5 AccDes= 0.00D+00
 Harris functional with IExCor= 1009 and IRadAn=       5 diagonalized for initial guess.
 HarFok:  IExCor= 1009 AccDes= 0.00D+00 IRadAn=         5 IDoV= 1 UseB2=F ITyADJ=14
 ICtDFT=  3500011 ScaDFX=  1.000000  1.000000  1.000000  1.000000
 FoFCou: FMM=F IPFlag=           0 FMFlag=      100000 FMFlg1=           0
         NFxFlg=           0 DoJE=T BraDBF=F KetDBF=T FulRan=T
         wScrn=  0.000000 ICntrl=       500 IOpCl=  0 I1Cent=   200000004 NGrid=           0
         NMat0=    1 NMatS0=      1 NMatT0=    0 NMatD0=    1 NMtDS0=    0 NMtDT0=    0
 Petite list used in FoFCou.
 Requested convergence on RMS density matrix=1.00D-08 within 128 cycles.
 Requested convergence on MAX density matrix=1.00D-06.
 Requested convergence on             energy=1.00D-06.
 No special actions if energy rises.
 Inv3:  Mode=1 IEnd=    11337408.
 Iteration    1 A*A^-1 deviation from unit magnitude is 9.55D-15 for    201.
 Iteration    1 A*A^-1 deviation from orthogonality  is 4.43D-15 for    859    207.
 Iteration    1 A^-1*A deviation from unit magnitude is 7.99D-15 for    201.
 Iteration    1 A^-1*A deviation from orthogonality  is 2.47D-13 for   1180   1169.
 Error on total polarization charges =  0.05733
 SCF Done:  E(RM052X) =  -648.606895632     A.U. after   14 cycles
            NFock= 14  Conv=0.53D-08     -V/T= 2.0034
 SMD-CDS (non-electrostatic) energy       (kcal/mol) =       6.45
 (included in total energy above)

 **********************************************************************

            Population analysis using the SCF Density.

 **********************************************************************

 Orbital symmetries:
       Occupied  (A) (A) (A) (A) (A) (A) (A) (A) (A) (A) (A) (A)
                 (A) (A) (A) (A) (A) (A) (A) (A) (A) (A) (A) (A)
                 (A) (A) (A) (A) (A) (A) (A) (A) (A) (A) (A) (A)
                 (A) (A) (A) (A) (A) (A) (A) (A) (A) (A) (A) (A)
                 (A) (A)
       Virtual   (A) (A) (A) (A) (A) (A) (A) (A) (A) (A) (A) (A)
                 (A) (A) (A) (A) (A) (A) (A) (A) (A) (A) (A) (A)
                 (A) (A) (A) (A) (A) (A) (A) (A) (A) (A) (A) (A)
                 (A) (A) (A) (A) (A) (A) (A) (A) (A) (A) (A) (A)
                 (A) (A) (A) (A) (A) (A) (A) (A) (A) (A) (A) (A)
                 (A) (A) (A) (A) (A) (A) (A) (A) (A) (A) (A) (A)
                 (A) (A) (A) (A) (A) (A) (A) (A) (A) (A) (A) (A)
                 (A) (A) (A) (A) (A) (A) (A) (A) (A) (A) (A) (A)
                 (A) (A) (A) (A) (A) (A) (A) (A) (A) (A) (A) (A)
                 (A) (A) (A) (A) (A) (A) (A) (A) (A) (A) (A) (A)
                 (A) (A) (A) (A) (A) (A) (A) (A) (A) (A) (A) (A)
                 (A) (A) (A) (A) (A) (A) (A) (A) (A) (A) (A) (A)
                 (A) (A) (A) (A) (A) (A) (A) (A) (A) (A) (A) (A)
                 (A) (A) (A) (A) (A) (A) (A) (A) (A) (A) (A) (A)
                 (A) (A) (A) (A) (A) (A) (A) (A) (A) (A) (A) (A)
                 (A) (A) (A) (A) (A) (A) (A) (A) (A) (A) (A) (A)
                 (A) (A) (A) (A) (A) (A) (A) (A) (A) (A) (A) (A)
                 (A) (A) (A) (A) (A) (A) (A) (A) (A) (A) (A) (A)
                 (A) (A) (A) (A) (A) (A) (A) (A) (A) (A) (A) (A)
                 (A) (A) (A) (A) (A) (A) (A) (A) (A) (A) (A) (A)
                 (A) (A) (A) (A) (A) (A) (A) (A) (A) (A) (A) (A)
                 (A) (A) (A) (A) (A) (A) (A) (A) (A) (A) (A) (A)
                 (A) (A) (A) (A) (A) (A) (A) (A) (A) (A) (A) (A)
                 (A) (A) (A) (A) (A) (A) (A) (A) (A) (A) (A) (A)
                 (A) (A) (A) (A) (A) (A) (A) (A) (A) (A) (A) (A)
                 (A) (A) (A) (A) (A) (A) (A) (A) (A) (A) (A) (A)
                 (A) (A) (A) (A) (A) (A) (A) (A)
 The electronic state is 1-A.
 Alpha  occ. eigenvalues --  -19.68890 -19.65709 -19.64596 -14.82331 -14.81135
 Alpha  occ. eigenvalues --  -10.69395 -10.68581 -10.68433 -10.62391 -10.58895
 Alpha  occ. eigenvalues --  -10.57062 -10.55661 -10.54681  -1.21940  -1.19718
 Alpha  occ. eigenvalues --   -1.19166  -1.05850  -1.04523  -0.89869  -0.89161
 Alpha  occ. eigenvalues --   -0.81118  -0.79721  -0.75305  -0.71129  -0.68940
 Alpha  occ. eigenvalues --   -0.68321  -0.61973  -0.59403  -0.58856  -0.56962
 Alpha  occ. eigenvalues --   -0.56461  -0.55452  -0.53739  -0.52952  -0.51803
 Alpha  occ. eigenvalues --   -0.50887  -0.48640  -0.47196  -0.46514  -0.45753
 Alpha  occ. eigenvalues --   -0.45461  -0.44303  -0.43447  -0.42782  -0.41965
 Alpha  occ. eigenvalues --   -0.40774  -0.35623  -0.34581  -0.34181  -0.33025
 Alpha virt. eigenvalues --   -0.03905   0.04281   0.05354   0.05729   0.06965
 Alpha virt. eigenvalues --    0.07203   0.07432   0.08049   0.08928   0.09611
 Alpha virt. eigenvalues --    0.09791   0.10477   0.10987   0.11106   0.11944
 Alpha virt. eigenvalues --    0.12052   0.12312   0.12629   0.13735   0.14154
 Alpha virt. eigenvalues --    0.14719   0.15038   0.15807   0.15865   0.16234
 Alpha virt. eigenvalues --    0.17681   0.18494   0.18689   0.19177   0.19780
 Alpha virt. eigenvalues --    0.20112   0.20956   0.21514   0.22508   0.23062
 Alpha virt. eigenvalues --    0.23146   0.23333   0.23630   0.24401   0.25520
 Alpha virt. eigenvalues --    0.26203   0.26512   0.26707   0.26900   0.27460
 Alpha virt. eigenvalues --    0.27993   0.28245   0.29070   0.29605   0.29615
 Alpha virt. eigenvalues --    0.29982   0.30403   0.31342   0.31947   0.32019
 Alpha virt. eigenvalues --    0.32600   0.33128   0.33160   0.34099   0.34294
 Alpha virt. eigenvalues --    0.34787   0.35499   0.35778   0.36542   0.36926
 Alpha virt. eigenvalues --    0.37296   0.38134   0.38714   0.38988   0.39690
 Alpha virt. eigenvalues --    0.41169   0.42475   0.43461   0.44689   0.45697
 Alpha virt. eigenvalues --    0.46306   0.46645   0.48377   0.48643   0.49355
 Alpha virt. eigenvalues --    0.51520   0.53269   0.53894   0.54993   0.55527
 Alpha virt. eigenvalues --    0.56116   0.56334   0.59075   0.59983   0.61820
 Alpha virt. eigenvalues --    0.62991   0.63149   0.64758   0.65920   0.67179
 Alpha virt. eigenvalues --    0.67654   0.69444   0.70832   0.71038   0.71801
 Alpha virt. eigenvalues --    0.72633   0.72900   0.74089   0.74589   0.75631
 Alpha virt. eigenvalues --    0.75799   0.76133   0.77275   0.77766   0.78922
 Alpha virt. eigenvalues --    0.79559   0.79958   0.80702   0.82021   0.82406
 Alpha virt. eigenvalues --    0.83203   0.83577   0.86248   0.89604   0.91425
 Alpha virt. eigenvalues --    0.92265   0.93898   0.95593   0.96198   0.97881
 Alpha virt. eigenvalues --    0.98492   1.01588   1.02897   1.03451   1.05666
 Alpha virt. eigenvalues --    1.06371   1.11036   1.13567   1.14766   1.16916
 Alpha virt. eigenvalues --    1.17878   1.18007   1.20717   1.22789   1.23958
 Alpha virt. eigenvalues --    1.24792   1.25632   1.26685   1.28898   1.30722
 Alpha virt. eigenvalues --    1.32529   1.34208   1.34810   1.35750   1.37583
 Alpha virt. eigenvalues --    1.37998   1.39628   1.43931   1.44647   1.48238
 Alpha virt. eigenvalues --    1.52272   1.52678   1.53610   1.53792   1.54571
 Alpha virt. eigenvalues --    1.55805   1.56897   1.57362   1.59713   1.60253
 Alpha virt. eigenvalues --    1.60348   1.60919   1.62264   1.62693   1.63825
 Alpha virt. eigenvalues --    1.64333   1.65912   1.67813   1.68632   1.70794
 Alpha virt. eigenvalues --    1.71617   1.72683   1.73625   1.74474   1.75832
 Alpha virt. eigenvalues --    1.78615   1.80077   1.80725   1.82243   1.84156
 Alpha virt. eigenvalues --    1.84790   1.85804   1.88883   1.89374   1.90924
 Alpha virt. eigenvalues --    1.93171   1.93656   1.95213   1.97009   1.98423
 Alpha virt. eigenvalues --    2.01130   2.02942   2.07916   2.10871   2.11934
 Alpha virt. eigenvalues --    2.12831   2.13638   2.14360   2.14736   2.16235
 Alpha virt. eigenvalues --    2.20573   2.21096   2.23358   2.24476   2.26129
 Alpha virt. eigenvalues --    2.30508   2.34707   2.37236   2.38904   2.41075
 Alpha virt. eigenvalues --    2.43308   2.45066   2.45467   2.47401   2.54904
 Alpha virt. eigenvalues --    2.56210   2.56965   2.57092   2.57481   2.59330
 Alpha virt. eigenvalues --    2.60896   2.62465   2.64904   2.66018   2.66763
 Alpha virt. eigenvalues --    2.67539   2.68766   2.69308   2.70605   2.71501
 Alpha virt. eigenvalues --    2.71958   2.72513   2.74017   2.74669   2.77759
 Alpha virt. eigenvalues --    2.79629   2.82715   2.84475   2.87628   2.89266
 Alpha virt. eigenvalues --    2.91639   2.92103   2.92873   2.93870   2.94973
 Alpha virt. eigenvalues --    2.95691   2.98815   2.99766   3.01548   3.01939
 Alpha virt. eigenvalues --    3.02614   3.03115   3.04330   3.06679   3.11120
 Alpha virt. eigenvalues --    3.12679   3.17266   3.22922   3.25772   3.32650
 Alpha virt. eigenvalues --    3.38363   3.39217   3.42526   3.43929   3.45170
 Alpha virt. eigenvalues --    3.48745   3.50374   3.61924   3.66462   3.70001
 Alpha virt. eigenvalues --    3.72845   3.77950   3.80619   3.85129   3.91946
 Alpha virt. eigenvalues --    3.92455   3.92763   3.93631   3.94179   3.94931
 Alpha virt. eigenvalues --    3.98480   3.99793   4.01219   4.04188   4.15562
 Alpha virt. eigenvalues --    4.19837   4.26763   4.34673   4.40993   4.92178
 Alpha virt. eigenvalues --    4.99173   5.07341   5.12073   5.15206   5.16225
 Alpha virt. eigenvalues --    5.17850   5.32719   5.35238   5.39661   5.79962
 Alpha virt. eigenvalues --    5.85458   5.89232  23.99560  24.02644  24.05644
 Alpha virt. eigenvalues --   24.07038  24.07982  24.10917  24.15440  24.16607
 Alpha virt. eigenvalues --   35.85065  35.85853  50.22153  50.26868  50.28286
          Condensed to atoms (all electrons):
               1          2          3          4          5          6
     1  N    7.042765   0.315425   0.335763  -0.194913  -0.700410   0.076385
     2  C    0.315425   5.082050  -0.061953  -0.034797  -0.281900   0.013617
     3  C    0.335763  -0.061953   7.631563   0.585887  -2.796007  -0.084126
     4  O   -0.194913  -0.034797   0.585887   8.279978  -0.246691   0.059387
     5  C   -0.700410  -0.281900  -2.796007  -0.246691  11.646051  -0.418490
     6  N    0.076385   0.013617  -0.084126   0.059387  -0.418490   7.366499
     7  C    0.007378   0.000662   0.794199   0.015634  -0.832293  -0.149668
     8  C    0.114520   0.033560  -0.210805   0.026288  -0.679986   0.263326
     9  C   -0.004428  -0.003414  -0.393855   0.015203   0.103501  -0.259584
    10  O   -0.001013  -0.000344   0.032959   0.000917   0.064791  -0.202613
    11  C   -0.001003  -0.000136   0.001657   0.000191   0.063125   0.033164
    12  O    0.000112   0.000123   0.001656  -0.000560   0.036655   0.037419
    13  C   -0.000009   0.000007   0.000099   0.000052  -0.035207   0.002884
    14  H    0.363757  -0.026287  -0.037817   0.001993   0.045911  -0.001292
    15  H   -0.038193   0.418056  -0.020494  -0.000906   0.024787  -0.001104
    16  H   -0.056045   0.400358   0.032991   0.004083   0.003174   0.000142
    17  H   -0.033236   0.430895  -0.025095   0.001535  -0.005161   0.000380
    18  H    0.008838   0.001920   0.049765   0.000887   0.280966   0.006995
    19  H    0.000857   0.000867   0.002121   0.005135   0.016656   0.321607
    20  H    0.002716   0.000669   0.060952  -0.001212  -0.150820   0.022558
    21  H   -0.000035   0.000039   0.019831  -0.000659  -0.007335  -0.034635
    22  H   -0.001675  -0.000862  -0.031352   0.001880   0.047192  -0.014753
    23  H    0.000000  -0.000002  -0.001468  -0.000001   0.002917  -0.002888
    24  H    0.000003   0.000003   0.001508   0.000001  -0.001215  -0.000447
    25  H   -0.000000   0.000000   0.000047   0.000000  -0.000021   0.000050
    26  H    0.000000   0.000000   0.000035  -0.000000   0.000288  -0.000092
    27  H   -0.000000  -0.000000  -0.000223   0.000002   0.000184   0.000007
               7          8          9         10         11         12
     1  N    0.007378   0.114520  -0.004428  -0.001013  -0.001003   0.000112
     2  C    0.000662   0.033560  -0.003414  -0.000344  -0.000136   0.000123
     3  C    0.794199  -0.210805  -0.393855   0.032959   0.001657   0.001656
     4  O    0.015634   0.026288   0.015203   0.000917   0.000191  -0.000560
     5  C   -0.832293  -0.679986   0.103501   0.064791   0.063125   0.036655
     6  N   -0.149668   0.263326  -0.259584  -0.202613   0.033164   0.037419
     7  C   13.479947  -0.205356  -7.416833   0.248316   0.994555   0.184690
     8  C   -0.205356   6.060741  -0.062378  -0.099777  -0.004328  -0.001339
     9  C   -7.416833  -0.062378  14.127408   0.155001  -1.979332   0.096171
    10  O    0.248316  -0.099777   0.155001   8.220621  -0.004714  -0.000867
    11  C    0.994555  -0.004328  -1.979332  -0.004714   6.897371  -0.009613
    12  O    0.184690  -0.001339   0.096171  -0.000867  -0.009613   8.101746
    13  C   -0.847459   0.002216   1.198720   0.024868  -0.529653  -0.133075
    14  H    0.001539  -0.005001   0.000066   0.000046   0.000016  -0.000001
    15  H   -0.001249  -0.004158   0.000039   0.000003   0.000003  -0.000001
    16  H    0.000134  -0.001174   0.000006   0.000000   0.000000  -0.000000
    17  H    0.000427   0.005955   0.000046  -0.000002  -0.000006   0.000001
    18  H    0.019782  -0.013626  -0.022087   0.005126  -0.002133   0.000394
    19  H   -0.019842  -0.020968   0.014506   0.003832   0.006525   0.018903
    20  H    0.013855   0.424632  -0.004107   0.000093   0.000380   0.000023
    21  H    0.013207   0.364486   0.023933   0.001570  -0.000529  -0.000196
    22  H   -0.007840   0.387947  -0.008058   0.000372  -0.000288   0.000131
    23  H    0.020670  -0.000152  -0.053585  -0.002562   0.430493   0.004727
    24  H    0.062618   0.000178  -0.114571  -0.003471   0.456186   0.004760
    25  H    0.014683  -0.000001  -0.046350  -0.000092   0.014494  -0.002194
    26  H    0.037198  -0.000008  -0.018234  -0.000134  -0.013194   0.004272
    27  H    0.004329   0.000012  -0.035144  -0.000049   0.008723  -0.002410
              13         14         15         16         17         18
     1  N   -0.000009   0.363757  -0.038193  -0.056045  -0.033236   0.008838
     2  C    0.000007  -0.026287   0.418056   0.400358   0.430895   0.001920
     3  C    0.000099  -0.037817  -0.020494   0.032991  -0.025095   0.049765
     4  O    0.000052   0.001993  -0.000906   0.004083   0.001535   0.000887
     5  C   -0.035207   0.045911   0.024787   0.003174  -0.005161   0.280966
     6  N    0.002884  -0.001292  -0.001104   0.000142   0.000380   0.006995
     7  C   -0.847459   0.001539  -0.001249   0.000134   0.000427   0.019782
     8  C    0.002216  -0.005001  -0.004158  -0.001174   0.005955  -0.013626
     9  C    1.198720   0.000066   0.000039   0.000006   0.000046  -0.022087
    10  O    0.024868   0.000046   0.000003   0.000000  -0.000002   0.005126
    11  C   -0.529653   0.000016   0.000003   0.000000  -0.000006  -0.002133
    12  O   -0.133075  -0.000001  -0.000001  -0.000000   0.000001   0.000394
    13  C    5.841940   0.000000  -0.000000  -0.000000   0.000000  -0.000113
    14  H    0.000000   0.313539   0.002842  -0.004778   0.002461  -0.001478
    15  H   -0.000000   0.002842   0.496013  -0.019986  -0.037094  -0.000051
    16  H   -0.000000  -0.004778  -0.019986   0.482655  -0.018611   0.000002
    17  H    0.000000   0.002461  -0.037094  -0.018611   0.497247  -0.000011
    18  H   -0.000113  -0.001478  -0.000051   0.000002  -0.000011   0.428529
    19  H   -0.000342  -0.000030   0.000013  -0.000000  -0.000008   0.001857
    20  H    0.000004   0.002298  -0.000002   0.000022   0.000001  -0.003195
    21  H    0.000246  -0.000166   0.000005   0.000002  -0.000010  -0.006786
    22  H   -0.000103  -0.000302  -0.000005  -0.000002  -0.000032   0.005127
    23  H   -0.056403  -0.000000  -0.000000  -0.000000   0.000000   0.000001
    24  H   -0.063004  -0.000000  -0.000000   0.000000   0.000000   0.000008
    25  H    0.387125  -0.000000   0.000000   0.000000  -0.000000  -0.000000
    26  H    0.373819  -0.000000   0.000000   0.000000   0.000000   0.000000
    27  H    0.392331   0.000000  -0.000000  -0.000000  -0.000000   0.000000
              19         20         21         22         23         24
     1  N    0.000857   0.002716  -0.000035  -0.001675   0.000000   0.000003
     2  C    0.000867   0.000669   0.000039  -0.000862  -0.000002   0.000003
     3  C    0.002121   0.060952   0.019831  -0.031352  -0.001468   0.001508
     4  O    0.005135  -0.001212  -0.000659   0.001880  -0.000001   0.000001
     5  C    0.016656  -0.150820  -0.007335   0.047192   0.002917  -0.001215
     6  N    0.321607   0.022558  -0.034635  -0.014753  -0.002888  -0.000447
     7  C   -0.019842   0.013855   0.013207  -0.007840   0.020670   0.062618
     8  C   -0.020968   0.424632   0.364486   0.387947  -0.000152   0.000178
     9  C    0.014506  -0.004107   0.023933  -0.008058  -0.053585  -0.114571
    10  O    0.003832   0.000093   0.001570   0.000372  -0.002562  -0.003471
    11  C    0.006525   0.000380  -0.000529  -0.000288   0.430493   0.456186
    12  O    0.018903   0.000023  -0.000196   0.000131   0.004727   0.004760
    13  C   -0.000342   0.000004   0.000246  -0.000103  -0.056403  -0.063004
    14  H   -0.000030   0.002298  -0.000166  -0.000302  -0.000000  -0.000000
    15  H    0.000013  -0.000002   0.000005  -0.000005  -0.000000  -0.000000
    16  H   -0.000000   0.000022   0.000002  -0.000002  -0.000000   0.000000
    17  H   -0.000008   0.000001  -0.000010  -0.000032   0.000000   0.000000
    18  H    0.001857  -0.003195  -0.006786   0.005127   0.000001   0.000008
    19  H    0.307424  -0.000235   0.000236   0.001491  -0.000053  -0.000015
    20  H   -0.000235   0.496562  -0.019104  -0.022831  -0.000000  -0.000000
    21  H    0.000236  -0.019104   0.481661  -0.023275  -0.000032   0.000008
    22  H    0.001491  -0.022831  -0.023275   0.471892   0.000000  -0.000000
    23  H   -0.000053  -0.000000  -0.000032   0.000000   0.461465  -0.020455
    24  H   -0.000015  -0.000000   0.000008  -0.000000  -0.020455   0.460017
    25  H    0.000010  -0.000000   0.000000   0.000000  -0.007018   0.006513
    26  H   -0.000003   0.000000   0.000000   0.000000  -0.004414  -0.004473
    27  H    0.000005  -0.000000  -0.000000  -0.000000   0.006491  -0.006864
              25         26         27
     1  N   -0.000000   0.000000  -0.000000
     2  C    0.000000   0.000000  -0.000000
     3  C    0.000047   0.000035  -0.000223
     4  O    0.000000  -0.000000   0.000002
     5  C   -0.000021   0.000288   0.000184
     6  N    0.000050  -0.000092   0.000007
     7  C    0.014683   0.037198   0.004329
     8  C   -0.000001  -0.000008   0.000012
     9  C   -0.046350  -0.018234  -0.035144
    10  O   -0.000092  -0.000134  -0.000049
    11  C    0.014494  -0.013194   0.008723
    12  O   -0.002194   0.004272  -0.002410
    13  C    0.387125   0.373819   0.392331
    14  H   -0.000000  -0.000000   0.000000
    15  H    0.000000   0.000000  -0.000000
    16  H    0.000000   0.000000  -0.000000
    17  H   -0.000000   0.000000  -0.000000
    18  H   -0.000000   0.000000   0.000000
    19  H    0.000010  -0.000003   0.000005
    20  H   -0.000000   0.000000  -0.000000
    21  H    0.000000   0.000000  -0.000000
    22  H    0.000000   0.000000  -0.000000
    23  H   -0.007018  -0.004414   0.006491
    24  H    0.006513  -0.004473  -0.006864
    25  H    0.516747  -0.022550  -0.029130
    26  H   -0.022550   0.495912  -0.022407
    27  H   -0.029130  -0.022407   0.515979
 Mulliken charges:
               1
     1  N   -0.237559
     2  C   -0.288553
     3  C    0.112163
     4  O   -0.519312
     5  C   -0.180663
     6  N   -0.034728
     7  C   -0.433284
     8  C   -0.374803
     9  C    0.687362
    10  O   -0.442877
    11  C   -0.361953
    12  O   -0.341528
    13  C   -0.558946
    14  H    0.342681
    15  H    0.181480
    16  H    0.177027
    17  H    0.180318
    18  H    0.239283
    19  H    0.339451
    20  H    0.176742
    21  H    0.187537
    22  H    0.195347
    23  H    0.222268
    24  H    0.222712
    25  H    0.167687
    26  H    0.173984
    27  H    0.168165
 Sum of Mulliken charges =  -0.00000
 Mulliken charges with hydrogens summed into heavy atoms:
               1
     1  N    0.105121
     2  C    0.250271
     3  C    0.112163
     4  O   -0.519312
     5  C    0.058620
     6  N    0.304723
     7  C   -0.433284
     8  C    0.184823
     9  C    0.687362
    10  O   -0.442877
    11  C    0.083027
    12  O   -0.341528
    13  C   -0.049109
 Electronic spatial extent (au):  <R**2>=           3745.9927
 Charge=             -0.0000 electrons
 Dipole moment (field-independent basis, Debye):
    X=              4.0857    Y=              4.2300    Z=             -0.0781  Tot=              5.8814
 Quadrupole moment (field-independent basis, Debye-Ang):
   XX=            -47.9100   YY=            -90.4748   ZZ=            -77.8774
   XY=              7.7894   XZ=             -0.6760   YZ=              5.0376
 Traceless Quadrupole moment (field-independent basis, Debye-Ang):
   XX=             24.1774   YY=            -18.3874   ZZ=             -5.7900
   XY=              7.7894   XZ=             -0.6760   YZ=              5.0376
 Octapole moment (field-independent basis, Debye-Ang**2):
  XXX=             89.8809  YYY=              9.6867  ZZZ=              0.3537  XYY=             17.3277
  XXY=             39.8783  XXZ=            -24.6899  XZZ=              3.0695  YZZ=             -2.8691
  YYZ=              2.0435  XYZ=            -11.2654
 Hexadecapole moment (field-independent basis, Debye-Ang**3):
 XXXX=          -3345.7895 YYYY=           -598.1101 ZZZZ=           -214.6242 XXXY=            -24.2679
 XXXZ=            -25.3015 YYYX=             34.3680 YYYZ=             12.9320 ZZZX=              0.6441
 ZZZY=             -3.7097 XXYY=           -808.9006 XXZZ=           -722.8834 YYZZ=           -134.0819
 XXYZ=             16.4975 YYXZ=             -7.5212 ZZXY=             -3.1380
 N-N= 8.133128453998D+02 E-N=-3.142487563964D+03  KE= 6.464263709629D+02
 D1PCM: PCM CHGder 1st derivatives, ID1Alg=3 FixD1E=F DoIter=F DoCFld=F I1PDM=0.
 Calling FoFJK, ICntrl=      2127 FMM=F ISym2X=0 I1Cent= 0 IOpClX= 0 NMat=1 NMatS=1 NMatT=0.
 ***** Axes restored to original set *****
 -------------------------------------------------------------------
 Center     Atomic                   Forces (Hartrees/Bohr)
 Number     Number              X              Y              Z
 -------------------------------------------------------------------
      1        7           0.015018209   -0.029189916    0.008453021
      2        6           0.004715320    0.002419937   -0.002148723
      3        6          -0.016896424    0.014227637    0.003417026
      4        8           0.010243392   -0.035650361    0.010277697
      5        6           0.003301575    0.003427492   -0.012739778
      6        7           0.011259426    0.037151341    0.005827503
      7        6          -0.040317986   -0.000602623   -0.000126049
      8        6          -0.000915840    0.003509652    0.001151768
      9        6           0.024923941   -0.013570048   -0.000304425
     10        8           0.012231952    0.032083545    0.000006275
     11        6           0.003026483   -0.007090395   -0.000040434
     12        8          -0.011141171   -0.009667480    0.000001745
     13        6          -0.004112111    0.004869686   -0.000026574
     14        1          -0.008927013    0.034780040   -0.011847567
     15        1          -0.001839960   -0.000932445   -0.000973968
     16        1           0.004252369    0.000224816   -0.001075087
     17        1          -0.001187673    0.000310928    0.001991638
     18        1           0.001570375   -0.002295631    0.000656615
     19        1          -0.001114082   -0.040603783    0.001083658
     20        1           0.001430881    0.000978963   -0.003115715
     21        1          -0.001460569   -0.000426910   -0.000203707
     22        1          -0.000692448    0.000570179   -0.000360662
     23        1          -0.004186834    0.004239072    0.001611455
     24        1          -0.004234633    0.004281790   -0.001538805
     25        1           0.002829330   -0.000858477    0.001781352
     26        1          -0.000584505   -0.001322829    0.000015751
     27        1           0.002807999   -0.000864180   -0.001774010
 -------------------------------------------------------------------
 Cartesian Forces:  Max     0.040603783 RMS     0.012206389

 GradGradGradGradGradGradGradGradGradGradGradGradGradGradGradGradGradGrad
 Berny optimization.
 FormGI is forming the generalized inverse of G from B-inverse, IUseBI=4.
 Internal  Forces:  Max     0.040577808 RMS     0.008889148
 Search for a local minimum.
 Step number   1 out of a maximum of  135
 All quantities printed in internal units (Hartrees-Bohrs-Radians)
 Mixed Optimization -- RFO/linear search
 Second derivative matrix not updated -- first step.
 ITU=  0
     Eigenvalues ---    0.00369   0.00370   0.00673   0.00674   0.00758
     Eigenvalues ---    0.00832   0.00832   0.00886   0.01357   0.01452
     Eigenvalues ---    0.01452   0.01634   0.02383   0.02383   0.04538
     Eigenvalues ---    0.04984   0.05175   0.05551   0.05806   0.05806
     Eigenvalues ---    0.05806   0.05807   0.06352   0.07573   0.07574
     Eigenvalues ---    0.08839   0.12451   0.16000   0.16000   0.16000
     Eigenvalues ---    0.16000   0.16000   0.16000   0.16000   0.16000
     Eigenvalues ---    0.16000   0.16000   0.16000   0.16909   0.18037
     Eigenvalues ---    0.21985   0.22000   0.22000   0.25000   0.25000
     Eigenvalues ---    0.25000   0.25000   0.25000   0.25000   0.29424
     Eigenvalues ---    0.29427   0.31653   0.31658   0.33350   0.34806
     Eigenvalues ---    0.34806   0.34807   0.34810   0.34810   0.34812
     Eigenvalues ---    0.34813   0.34817   0.34817   0.34819   0.34819
     Eigenvalues ---    0.34819   0.36346   0.36348   0.53376   0.53386
     Eigenvalues ---    0.55497   0.55499   0.98216   0.98634   1.01033
 RFO step:  Lambda=-2.42577705D-02 EMin= 3.69214236D-03
 Linear search not attempted -- first point.
 Iteration  1 RMS(Cart)=  0.06320888 RMS(Int)=  0.00169364
 Iteration  2 RMS(Cart)=  0.00461714 RMS(Int)=  0.00030663
 Iteration  3 RMS(Cart)=  0.00000427 RMS(Int)=  0.00030662
 Iteration  4 RMS(Cart)=  0.00000000 RMS(Int)=  0.00030662
 Variable       Old X    -DE/DX   Delta X   Delta X   Delta X     New X
                                 (Linear)    (Quad)   (Total)
    R1        2.76844  -0.00624   0.00000  -0.01610  -0.01610   2.75234
    R2        2.54693  -0.00923   0.00000  -0.01594  -0.01594   2.53099
    R3        1.83295   0.03780   0.00000   0.06774   0.06774   1.90069
    R4        2.05972  -0.00116   0.00000  -0.00310  -0.00310   2.05662
    R5        2.05985  -0.00361   0.00000  -0.00971  -0.00971   2.05014
    R6        2.05981  -0.00123   0.00000  -0.00331  -0.00331   2.05650
    R7        2.29191   0.03843   0.00000   0.03802   0.03802   2.32993
    R8        2.84774   0.00754   0.00000   0.02212   0.02212   2.86986
    R9        2.76841  -0.01150   0.00000  -0.02967  -0.02967   2.73874
   R10        2.89127   0.00388   0.00000   0.01219   0.01219   2.90346
   R11        2.05970  -0.00142   0.00000  -0.00380  -0.00380   2.05590
   R12        2.54691  -0.01021   0.00000  -0.01763  -0.01763   2.52928
   R13        1.83304   0.04058   0.00000   0.07272   0.07272   1.90576
   R14        2.81742   0.01788   0.00000   0.04999   0.04999   2.86741
   R15        2.29362   0.03192   0.00000   0.03171   0.03171   2.32533
   R16        2.05985  -0.00079   0.00000  -0.00211  -0.00211   2.05774
   R17        2.05973  -0.00120   0.00000  -0.00322  -0.00322   2.05651
   R18        2.05970  -0.00023   0.00000  -0.00061  -0.00061   2.05910
   R19        2.84783  -0.00215   0.00000  -0.00630  -0.00630   2.84152
   R20        2.28228   0.00951   0.00000   0.00919   0.00919   2.29147
   R21        2.89121  -0.00045   0.00000  -0.00142  -0.00142   2.88979
   R22        2.05980   0.00099   0.00000   0.00267   0.00267   2.06247
   R23        2.05991   0.00096   0.00000   0.00258   0.00258   2.06250
   R24        2.05991  -0.00112   0.00000  -0.00300  -0.00300   2.05692
   R25        2.05990  -0.00118   0.00000  -0.00316  -0.00316   2.05674
   R26        2.05969  -0.00105   0.00000  -0.00283  -0.00283   2.05686
    A1        2.09439   0.00165   0.00000   0.00677   0.00677   2.10115
    A2        2.09440  -0.00097   0.00000  -0.00417  -0.00417   2.09023
    A3        2.09440  -0.00068   0.00000  -0.00260  -0.00260   2.09180
    A4        1.91066   0.00317   0.00000   0.01832   0.01822   1.92888
    A5        1.91062  -0.00488   0.00000  -0.02868  -0.02858   1.88204
    A6        1.91061   0.00319   0.00000   0.01841   0.01832   1.92893
    A7        1.91063   0.00026   0.00000  -0.00072  -0.00062   1.91001
    A8        1.91070  -0.00199   0.00000  -0.00647  -0.00674   1.90396
    A9        1.91057   0.00025   0.00000  -0.00086  -0.00076   1.90982
   A10        2.09438   0.01242   0.00000   0.04530   0.04527   2.13965
   A11        2.09445  -0.02091   0.00000  -0.07624  -0.07627   2.01818
   A12        2.09436   0.00848   0.00000   0.03094   0.03091   2.12527
   A13        1.91062  -0.00573   0.00000  -0.02725  -0.02802   1.88260
   A14        1.91063   0.00396   0.00000   0.02957   0.02969   1.94032
   A15        1.91065   0.00050   0.00000  -0.00327  -0.00391   1.90675
   A16        1.91066   0.00456   0.00000   0.02874   0.02898   1.93963
   A17        1.91061  -0.00156   0.00000  -0.02636  -0.02665   1.88397
   A18        1.91063  -0.00175   0.00000  -0.00143  -0.00124   1.90938
   A19        2.09437   0.00439   0.00000   0.01798   0.01798   2.11235
   A20        2.09446  -0.00373   0.00000  -0.01731  -0.01731   2.07715
   A21        2.09435  -0.00066   0.00000  -0.00067  -0.00067   2.09368
   A22        2.09440  -0.02681   0.00000  -0.09774  -0.09775   1.99665
   A23        2.09444   0.02793   0.00000   0.10183   0.10183   2.19627
   A24        2.09435  -0.00112   0.00000  -0.00408  -0.00408   2.09026
   A25        1.91062   0.00442   0.00000   0.02474   0.02467   1.93529
   A26        1.91065   0.00028   0.00000   0.00015   0.00014   1.91080
   A27        1.91063   0.00035   0.00000   0.00255   0.00249   1.91312
   A28        1.91066  -0.00258   0.00000  -0.01526  -0.01529   1.89537
   A29        1.91059  -0.00188   0.00000  -0.00744  -0.00755   1.90304
   A30        1.91064  -0.00060   0.00000  -0.00474  -0.00473   1.90591
   A31        2.09439  -0.01560   0.00000  -0.05688  -0.05688   2.03750
   A32        2.09441  -0.00506   0.00000  -0.01845  -0.01845   2.07596
   A33        2.09439   0.02066   0.00000   0.07534   0.07533   2.16972
   A34        1.91061   0.01093   0.00000   0.05303   0.05265   1.96326
   A35        1.91067  -0.00550   0.00000  -0.03091  -0.03217   1.87851
   A36        1.91055  -0.00550   0.00000  -0.03069  -0.03198   1.87857
   A37        1.91075   0.00080   0.00000   0.02143   0.02175   1.93250
   A38        1.91060   0.00085   0.00000   0.02191   0.02223   1.93283
   A39        1.91062  -0.00158   0.00000  -0.03477  -0.03589   1.87473
   A40        1.91060   0.00398   0.00000   0.02251   0.02232   1.93293
   A41        1.91063  -0.00040   0.00000  -0.00394  -0.00391   1.90672
   A42        1.91070   0.00400   0.00000   0.02258   0.02240   1.93310
   A43        1.91054  -0.00211   0.00000  -0.01319  -0.01316   1.89738
   A44        1.91070  -0.00334   0.00000  -0.01464  -0.01501   1.89569
   A45        1.91063  -0.00213   0.00000  -0.01332  -0.01329   1.89733
    D1        1.04725   0.00071   0.00000   0.00680   0.00695   1.05420
    D2       -3.14153  -0.00001   0.00000  -0.00043  -0.00043   3.14122
    D3       -1.04723  -0.00075   0.00000  -0.00777  -0.00792  -1.05515
    D4       -2.09445   0.00072   0.00000   0.00696   0.00711  -2.08734
    D5       -0.00004  -0.00001   0.00000  -0.00028  -0.00027  -0.00032
    D6        2.09426  -0.00074   0.00000  -0.00761  -0.00776   2.08649
    D7       -0.00005   0.00022   0.00000   0.00596   0.00599   0.00594
    D8       -3.14158  -0.00029   0.00000  -0.00742  -0.00745   3.13415
    D9       -3.14154   0.00021   0.00000   0.00580   0.00584  -3.13570
   D10        0.00012  -0.00029   0.00000  -0.00757  -0.00761  -0.00749
   D11        3.14152  -0.00355   0.00000  -0.04172  -0.04154   3.09998
   D12       -1.04725   0.00096   0.00000  -0.00510  -0.00531  -1.05256
   D13        1.04715   0.00156   0.00000   0.00925   0.00922   1.05636
   D14       -0.00001  -0.00405   0.00000  -0.05510  -0.05487  -0.05487
   D15        2.09441   0.00046   0.00000  -0.01848  -0.01864   2.07577
   D16       -2.09438   0.00105   0.00000  -0.00412  -0.00411  -2.09849
   D17       -2.71013   0.00206   0.00000   0.00606   0.00565  -2.70448
   D18        0.43643   0.00204   0.00000   0.00557   0.00516   0.44159
   D19        1.47866  -0.00208   0.00000  -0.03107  -0.03102   1.44764
   D20       -1.65796  -0.00211   0.00000  -0.03156  -0.03151  -1.68947
   D21       -0.61573  -0.00178   0.00000  -0.03078  -0.03042  -0.64615
   D22        2.53083  -0.00181   0.00000  -0.03127  -0.03091   2.49992
   D23        1.04715   0.00189   0.00000   0.01906   0.01885   1.06600
   D24        3.14159   0.00160   0.00000   0.01561   0.01538  -3.12622
   D25       -1.04718   0.00126   0.00000   0.01146   0.01119  -1.03599
   D26        3.14154   0.00010   0.00000   0.02140   0.02164  -3.12000
   D27       -1.04721  -0.00019   0.00000   0.01795   0.01817  -1.02904
   D28        1.04721  -0.00053   0.00000   0.01380   0.01398   1.06119
   D29       -1.04726  -0.00009   0.00000   0.00584   0.00589  -1.04137
   D30        1.04717  -0.00037   0.00000   0.00239   0.00242   1.04959
   D31        3.14159  -0.00071   0.00000  -0.00176  -0.00177   3.13982
   D32       -3.13677   0.00015   0.00000   0.00329   0.00334  -3.13343
   D33        0.00491   0.00001   0.00000  -0.00019  -0.00025   0.00467
   D34       -0.00014   0.00016   0.00000   0.00373   0.00379   0.00365
   D35        3.14154   0.00002   0.00000   0.00026   0.00020  -3.14144
   D36        3.14157  -0.00012   0.00000  -0.00318  -0.00308   3.13849
   D37        0.00012  -0.00005   0.00000  -0.00117  -0.00115  -0.00103
   D38       -0.00011   0.00003   0.00000   0.00030   0.00028   0.00017
   D39       -3.14156   0.00009   0.00000   0.00231   0.00221  -3.13935
   D40        3.14157   0.00006   0.00000   0.00133   0.00135  -3.14027
   D41       -1.04707   0.00436   0.00000   0.04112   0.04023  -1.00684
   D42        1.04728  -0.00431   0.00000  -0.03918  -0.03824   1.00904
   D43       -0.00016  -0.00001   0.00000  -0.00069  -0.00071  -0.00087
   D44        2.09438   0.00429   0.00000   0.03911   0.03817   2.13255
   D45       -2.09445  -0.00437   0.00000  -0.04119  -0.04030  -2.13475
   D46        1.04734   0.00039   0.00000   0.00466   0.00476   1.05210
   D47       -3.14159  -0.00001   0.00000  -0.00012  -0.00013   3.14147
   D48       -1.04716  -0.00041   0.00000  -0.00502  -0.00514  -1.05230
   D49       -1.04716  -0.00006   0.00000  -0.00309  -0.00334  -1.05050
   D50        1.04710  -0.00045   0.00000  -0.00787  -0.00823   1.03887
   D51        3.14153  -0.00086   0.00000  -0.01278  -0.01324   3.12829
   D52        3.14159   0.00086   0.00000   0.01295   0.01341  -3.12818
   D53       -1.04733   0.00047   0.00000   0.00817   0.00853  -1.03881
   D54        1.04709   0.00007   0.00000   0.00326   0.00352   1.05061
         Item               Value     Threshold  Converged?
 Maximum Force            0.040578     0.000450     NO 
 RMS     Force            0.008889     0.000300     NO 
 Maximum Displacement     0.313475     0.001800     NO 
 RMS     Displacement     0.065321     0.001200     NO 
 Predicted change in Energy=-1.317727D-02
 GradGradGradGradGradGradGradGradGradGradGradGradGradGradGradGradGradGrad

                          Input orientation:                          
 ---------------------------------------------------------------------
 Center     Atomic      Atomic             Coordinates (Angstroms)
 Number     Number       Type             X           Y           Z
 ---------------------------------------------------------------------
      1          7           0       -3.550729    1.212043    0.738959
      2          6           0       -4.602246    0.387075    1.317805
      3          6           0       -2.303587    0.737541    0.623534
      4          8           0       -1.988690   -0.397824    0.986774
      5          6           0       -1.295773    1.684604   -0.003943
      6          7           0       -0.003425    1.028744    0.005774
      7          6           0        1.130872    1.739125   -0.006055
      8          6           0       -1.710784    2.069733   -1.432264
      9          6           0        2.395581    0.900728   -0.004715
     10          8           0        1.211907    2.966876   -0.020878
     11          6           0        3.701422    1.646053   -0.021851
     12          8           0        2.298416   -0.307905    0.007615
     13          6           0        4.909807    0.708882   -0.020881
     14          1           0       -3.763125    2.143453    0.424320
     15          1           0       -4.352509    0.113333    2.341097
     16          1           0       -5.519616    0.966204    1.312686
     17          1           0       -4.742818   -0.518756    0.731287
     18          1           0       -1.220321    2.582939    0.605077
     19          1           0        0.033569    0.021009    0.017762
     20          1           0       -2.671966    2.581445   -1.432562
     21          1           0       -0.963400    2.734826   -1.860484
     22          1           0       -1.785670    1.172440   -2.045895
     23          1           0        3.707092    2.282642   -0.908362
     24          1           0        3.719654    2.301218    0.850870
     25          1           0        4.898906    0.064706   -0.898203
     26          1           0        5.822996    1.300901   -0.033724
     27          1           0        4.911935    0.083065    0.869659
 ---------------------------------------------------------------------
                    Distance matrix (angstroms):
                    1          2          3          4          5
     1  N    0.000000
     2  C    1.456477   0.000000
     3  C    1.339343   2.426659   0.000000
     4  O    2.256779   2.748877   1.232946   0.000000
     5  C    2.420752   3.789903   1.518665   2.407938   0.000000
     6  N    3.626917   4.825176   2.399411   2.634148   1.449280
     7  C    4.769722   6.037325   3.632501   3.909467   2.427259
     8  C    2.972412   4.330678   2.520408   3.466672   1.536443
     9  C    6.000714   7.140202   4.743786   4.678795   3.773667
    10  O    5.132201   6.500140   4.212350   4.751883   2.816553
    11  C    7.304854   8.504740   6.107540   6.129611   4.997376
    12  O    6.087496   7.058239   4.759280   4.398423   4.109553
    13  C    8.509477   9.611181   7.242178   7.058997   6.281843
    14  H    1.005800   2.141799   2.036303   3.150090   2.545934
    15  H    2.101634   1.088316   2.745495   2.771843   4.160738
    16  H    2.065458   1.084889   3.296978   3.799241   4.482238
    17  H    2.101618   1.088252   2.745859   2.768595   4.156618
    18  H    2.707043   4.094780   2.139930   3.101779   1.087936
    19  H    3.845241   4.828551   2.518467   2.281214   2.129595
    20  H    2.713483   4.013199   2.786255   3.898218   2.176966
    21  H    3.971176   5.371653   3.457686   4.355639   2.158745
    22  H    3.297334   4.456948   2.753766   3.421115   2.161453
    23  H    7.519030   8.808752   6.392363   6.574069   5.119012
    24  H    7.352366   8.551959   6.227053   6.315734   5.124981
    25  H    8.682914   9.761480   7.392177   7.155840   6.465123
    26  H    9.405937  10.552127   8.172558   8.059127   7.129165
    27  H    8.538638   9.529580   7.249321   6.918352   6.470220
                    6          7          8          9         10
     6  N    0.000000
     7  C    1.338436   0.000000
     8  C    2.463065   3.196621   0.000000
     9  C    2.402442   1.517366   4.501856   0.000000
    10  O    2.287815   1.230511   3.367343   2.381241   0.000000
    11  C    3.756025   2.572282   5.608988   1.503670   2.818201
    12  O    2.661786   2.356625   4.878535   1.212596   3.450435
    13  C    4.923705   3.916883   6.904792   2.521587   4.332782
    14  H    3.943743   4.929495   2.768473   6.297468   5.062329
    15  H    5.020582   6.182216   5.004445   7.187457   6.684636
    16  H    5.669241   6.823890   4.822834   8.024349   7.148040
    17  H    5.038152   6.335766   4.535907   7.315283   6.940758
    18  H    2.062892   2.571695   2.157474   4.034405   2.540661
    19  H    1.008485   2.038766   3.056569   2.520617   3.173028
    20  H    3.405996   4.148012   1.088907   5.526625   4.150407
    21  H    2.704660   2.969226   1.088257   4.253298   2.858314
    22  H    2.721469   3.603928   1.089627   4.660805   4.038089
    23  H    4.021920   2.783249   5.447310   2.108632   2.735279
    24  H    4.024263   2.784252   5.895417   2.108688   2.737122
    25  H    5.077340   4.218730   6.927724   2.786375   4.773494
    26  H    5.832907   4.712624   7.700965   3.450819   4.902833
    27  H    5.079504   4.219697   7.287393   2.786600   4.774895
                   11         12         13         14         15
    11  C    0.000000
    12  O    2.405670   0.000000
    13  C    1.529211   2.802504   0.000000
    14  H    7.494394   6.551724   8.802043   0.000000
    15  H    8.532207   7.060976   9.577271   2.853558   0.000000
    16  H    9.341880   8.027963  10.517485   2.293549   1.774024
    17  H    8.749788   7.081464   9.759407   2.853310   1.772954
    18  H    5.049192   4.592979   6.440682   2.586828   4.350095
    19  H    4.011918   2.288628   4.924669   4.368632   4.964281
    20  H    6.594326   5.926817   7.936159   2.197835   4.812101
    21  H    5.130942   4.836057   6.479441   3.661764   6.000964
    22  H    5.867644   4.805006   7.010348   3.309858   5.191924
    23  H    1.091412   3.087769   2.170454   7.589438   8.956677
    24  H    1.091428   3.088450   2.170702   7.496587   8.495142
    25  H    2.168552   2.778829   1.088474   9.005611   9.802250
    26  H    2.149499   3.874613   1.088377   9.633972  10.516225
    27  H    2.168654   2.779650   1.088444   8.927496   9.380616
                   16         17         18         19         20
    16  H    0.000000
    17  H    1.773850   0.000000
    18  H    4.647417   4.695149   0.000000
    19  H    5.779973   4.859458   2.912159   0.000000
    20  H    4.272529   4.310675   2.501849   3.997399   0.000000
    21  H    5.827189   5.620237   2.483560   3.447689   1.768005
    22  H    5.026426   4.395180   3.055615   2.982298   1.773977
    23  H    9.581138   9.051920   5.163340   4.412195   6.407531
    24  H    9.346638   8.920761   4.954102   4.413688   6.793040
    25  H   10.688607   9.795841   6.785741   4.951000   7.996100
    26  H   11.427147  10.748619   7.187489   5.929438   8.704075
    27  H   10.478237   9.674481   6.627513   4.952578   8.310094
                   21         22         23         24         25
    21  H    0.000000
    22  H    1.775262   0.000000
    23  H    4.787954   5.718126   0.000000
    24  H    5.428669   6.322497   1.759375   0.000000
    25  H    6.513229   6.872250   2.517889   3.074390   0.000000
    26  H    7.172751   7.871285   2.491155   2.491423   1.769024
    27  H    7.000362   7.385465   3.074271   2.518350   1.768005
                   26         27
    26  H    0.000000
    27  H    1.768971   0.000000
 Stoichiometry    C8H14N2O3
 Framework group  C1[X(C8H14N2O3)]
 Deg. of freedom    75
 Full point group                 C1      NOp   1
 Largest Abelian subgroup         C1      NOp   1
 Largest concise Abelian subgroup C1      NOp   1
                         Standard orientation:                         
 ---------------------------------------------------------------------
 Center     Atomic      Atomic             Coordinates (Angstroms)
 Number     Number       Type             X           Y           Z
 ---------------------------------------------------------------------
      1          7           0        3.571834    0.124351   -0.305113
      2          6           0        4.709255   -0.782563   -0.376569
      3          6           0        2.339513   -0.350689   -0.082490
      4          8           0        2.109237   -1.551506    0.076155
      5          6           0        1.235661    0.690370   -0.018833
      6          7           0       -0.021530   -0.005597    0.169620
      7          6           0       -1.178745    0.542649   -0.219854
      8          6           0        1.486887    1.696944    1.114459
      9          6           0       -2.401980   -0.310633    0.059445
     10          8           0       -1.310160    1.640596   -0.759667
     11          6           0       -3.731650    0.257243   -0.353492
     12          8           0       -2.255555   -1.389075    0.594152
     13          6           0       -4.894968   -0.679631   -0.025704
     14          1           0        3.713389    1.113044   -0.423784
     15          1           0        4.576483   -1.497886   -1.185961
     16          1           0        5.597284   -0.187747   -0.562534
     17          1           0        4.825524   -1.323208    0.560703
     18          1           0        1.186716    1.219709   -0.968048
     19          1           0       -0.016565   -0.915133    0.605239
     20          1           0        2.421666    2.232909    0.957458
     21          1           0        0.673566    2.419350    1.145150
     22          1           0        1.534755    1.170518    2.067282
     23          1           0       -3.853369    1.216119    0.153384
     24          1           0       -3.687026    0.457750   -1.425415
     25          1           0       -4.947789   -0.868880    1.044890
     26          1           0       -5.827755   -0.218806   -0.345257
     27          1           0       -4.781022   -1.631278   -0.541547
 ---------------------------------------------------------------------
 Rotational constants (GHZ):           2.0460943           0.3291008           0.2999759
 Standard basis: 6-311+G(d,p) (5D, 7F)
 There are   383 symmetry adapted cartesian basis functions of A   symmetry.
 There are   370 symmetry adapted basis functions of A   symmetry.
   370 basis functions,   580 primitive gaussians,   383 cartesian basis functions
    50 alpha electrons       50 beta electrons
       nuclear repulsion energy       812.4147935288 Hartrees.
 NAtoms=   27 NActive=   27 NUniq=   27 SFac= 1.00D+00 NAtFMM=   60 NAOKFM=F Big=F
 Integral buffers will be    131072 words long.
 Raffenetti 2 integral format.
 Two-electron integral symmetry is turned on.
 ------------------------------------------------------------------------------
 Polarizable Continuum Model (PCM)
 =================================
 Model                : PCM.
 Atomic radii         : SMD-Coulomb.
 Polarization charges : Total charges.
 Charge compensation  : None.
 Solution method      : On-the-fly selection.
 Cavity type          : VdW (van der Waals Surface) (Alpha=1.000).
 Cavity algorithm     : GePol (No added spheres)
                        Default sphere list used, NSphG=   27.
                        Lebedev-Laikov grids with approx.  5.0 points / Ang**2.
                        Smoothing algorithm: York/Karplus (Gamma=1.0000).
                        Polarization charges: spherical gaussians, with
                                              point-specific exponents (IZeta= 3).
                        Self-potential: point-specific (ISelfS= 7).
                        Self-field    : sphere-specific E.n sum rule (ISelfD= 2).
 1st derivatives      : Analytical E(r).r(x)/FMM algorithm (CHGder, D1EAlg=3).
                        Cavity 1st derivative terms included.
 Solvent              : Water, Eps=  78.355300 Eps(inf)=   1.777849
 ------------------------------------------------------------------------------
 ------------------------------------------------------------------------------
 Atomic radii for non-electrostatic terms: SMD-CDS.
 ------------------------------------------------------------------------------
 Nuclear repulsion after PCM non-electrostatic terms =      812.4251604698 Hartrees.
 One-electron integrals computed using PRISM.
 NBasis=   370 RedAO= T EigKep=  4.49D-06  NBF=   370
 NBsUse=   370 1.00D-06 EigRej= -1.00D+00 NBFU=   370
 Initial guess from the checkpoint file:  "2KT_3D.chk"
 B after Tr=     0.000000   -0.000000   -0.000000
         Rot=    0.999992   -0.003199   -0.002006   -0.001449 Ang=  -0.46 deg.
 ExpMin= 4.38D-02 ExpMax= 8.59D+03 ExpMxC= 1.30D+03 IAcc=3 IRadAn=         5 AccDes= 0.00D+00
 Harris functional with IExCor= 1009 and IRadAn=       5 diagonalized for initial guess.
 HarFok:  IExCor= 1009 AccDes= 0.00D+00 IRadAn=         5 IDoV= 1 UseB2=F ITyADJ=14
 ICtDFT=  3500011 ScaDFX=  1.000000  1.000000  1.000000  1.000000
 FoFCou: FMM=F IPFlag=           0 FMFlag=      100000 FMFlg1=           0
         NFxFlg=           0 DoJE=T BraDBF=F KetDBF=T FulRan=T
         wScrn=  0.000000 ICntrl=       500 IOpCl=  0 I1Cent=   200000004 NGrid=           0
         NMat0=    1 NMatS0=      1 NMatT0=    0 NMatD0=    1 NMtDS0=    0 NMtDT0=    0
 Petite list used in FoFCou.
 Requested convergence on RMS density matrix=1.00D-08 within 128 cycles.
 Requested convergence on MAX density matrix=1.00D-06.
 Requested convergence on             energy=1.00D-06.
 No special actions if energy rises.
 Inv3:  Mode=1 IEnd=    11314092.
 Iteration    1 A*A^-1 deviation from unit magnitude is 3.33D-15 for   1907.
 Iteration    1 A*A^-1 deviation from orthogonality  is 2.63D-15 for   1179    876.
 Iteration    1 A^-1*A deviation from unit magnitude is 3.77D-15 for   1942.
 Iteration    1 A^-1*A deviation from orthogonality  is 1.38D-13 for   1752   1724.
 Error on total polarization charges =  0.05780
 SCF Done:  E(RM052X) =  -648.619382093     A.U. after   13 cycles
            NFock= 13  Conv=0.46D-08     -V/T= 2.0038
 SMD-CDS (non-electrostatic) energy       (kcal/mol) =       6.51
 (included in total energy above)
 D1PCM: PCM CHGder 1st derivatives, ID1Alg=3 FixD1E=F DoIter=F DoCFld=F I1PDM=0.
 Calling FoFJK, ICntrl=      2127 FMM=F ISym2X=0 I1Cent= 0 IOpClX= 0 NMat=1 NMatS=1 NMatT=0.
 ***** Axes restored to original set *****
 -------------------------------------------------------------------
 Center     Atomic                   Forces (Hartrees/Bohr)
 Number     Number              X              Y              Z
 -------------------------------------------------------------------
      1        7           0.006526489   -0.007187912    0.002064430
      2        6          -0.000000960    0.002060406   -0.000790661
      3        6          -0.008413512    0.006755626   -0.000221336
      4        8           0.000075668   -0.003141299    0.000598094
      5        6           0.000625773   -0.000371912   -0.006103522
      6        7           0.007790845    0.013681241    0.000024599
      7        6          -0.011990042   -0.000809211   -0.001237382
      8        6           0.000395891   -0.001074959    0.002366672
      9        6           0.012255666   -0.006939026    0.000178101
     10        8          -0.003934622    0.000050339    0.000387887
     11        6           0.001660631   -0.009666810    0.000176877
     12        8           0.001841142    0.001580138   -0.000074644
     13        6          -0.005101102    0.003349347    0.000031574
     14        1           0.000045046    0.001076532    0.000143664
     15        1          -0.000177872   -0.000048278    0.000138592
     16        1          -0.000618555   -0.000521377    0.000392036
     17        1          -0.000190425   -0.000093960   -0.000032899
     18        1          -0.001167039    0.000414402    0.001548376
     19        1           0.001673808   -0.001967194    0.001035342
     20        1           0.000934004    0.000514760   -0.000565864
     21        1           0.000460934   -0.000091746    0.000200006
     22        1          -0.000345679   -0.000041344   -0.000272089
     23        1          -0.001783386    0.001948583    0.000758632
     24        1          -0.001808301    0.001983689   -0.000769792
     25        1           0.000408167   -0.000481722   -0.000269703
     26        1           0.000426259   -0.000501186    0.000000250
     27        1           0.000411172   -0.000477126    0.000292760
 -------------------------------------------------------------------
 Cartesian Forces:  Max     0.013681241 RMS     0.003607977

 GradGradGradGradGradGradGradGradGradGradGradGradGradGradGradGradGradGrad
 Berny optimization.
 Using GEDIIS/GDIIS optimizer.
 FormGI is forming the generalized inverse of G from B-inverse, IUseBI=4.
 Internal  Forces:  Max     0.011993771 RMS     0.002122779
 Search for a local minimum.
 Step number   2 out of a maximum of  135
 All quantities printed in internal units (Hartrees-Bohrs-Radians)
 Mixed Optimization -- RFO/linear search
 Update second derivatives using D2CorX and points    1    2
 DE= -1.25D-02 DEPred=-1.32D-02 R= 9.48D-01
 TightC=F SS=  1.41D+00  RLast= 2.98D-01 DXNew= 5.0454D-01 8.9295D-01
 Trust test= 9.48D-01 RLast= 2.98D-01 DXMaxT set to 5.05D-01
 ITU=  1  0
 Use linear search instead of GDIIS.
     Eigenvalues ---    0.00369   0.00370   0.00671   0.00673   0.00753
     Eigenvalues ---    0.00832   0.00833   0.00886   0.01368   0.01453
     Eigenvalues ---    0.01459   0.01686   0.02382   0.02383   0.04140
     Eigenvalues ---    0.04706   0.05026   0.05314   0.05582   0.05639
     Eigenvalues ---    0.05744   0.05777   0.06664   0.07398   0.07689
     Eigenvalues ---    0.09266   0.12826   0.15863   0.16000   0.16000
     Eigenvalues ---    0.16000   0.16000   0.16000   0.16000   0.16000
     Eigenvalues ---    0.16000   0.16000   0.16128   0.17495   0.17979
     Eigenvalues ---    0.21560   0.21999   0.22066   0.24290   0.24998
     Eigenvalues ---    0.25000   0.25000   0.25000   0.27408   0.29405
     Eigenvalues ---    0.29872   0.31500   0.32165   0.32742   0.34801
     Eigenvalues ---    0.34806   0.34807   0.34808   0.34811   0.34812
     Eigenvalues ---    0.34814   0.34817   0.34817   0.34819   0.34819
     Eigenvalues ---    0.34923   0.36344   0.36768   0.51214   0.53389
     Eigenvalues ---    0.55490   0.57629   0.97870   0.98512   1.01269
 RFO step:  Lambda=-2.63041749D-03 EMin= 3.69207066D-03
 Quartic linear search produced a step of  0.05340.
 Iteration  1 RMS(Cart)=  0.06514208 RMS(Int)=  0.00211752
 Iteration  2 RMS(Cart)=  0.00346334 RMS(Int)=  0.00006391
 Iteration  3 RMS(Cart)=  0.00000676 RMS(Int)=  0.00006381
 Iteration  4 RMS(Cart)=  0.00000000 RMS(Int)=  0.00006381
 Variable       Old X    -DE/DX   Delta X   Delta X   Delta X     New X
                                 (Linear)    (Quad)   (Total)
    R1        2.75234  -0.00018  -0.00086  -0.00103  -0.00189   2.75045
    R2        2.53099  -0.00673  -0.00085  -0.01320  -0.01405   2.51694
    R3        1.90069   0.00094   0.00362   0.00408   0.00769   1.90838
    R4        2.05662   0.00011  -0.00017   0.00023   0.00006   2.05668
    R5        2.05014   0.00024  -0.00052   0.00039  -0.00013   2.05001
    R6        2.05650   0.00012  -0.00018   0.00026   0.00008   2.05658
    R7        2.32993   0.00309   0.00203   0.00456   0.00659   2.33652
    R8        2.86986   0.00350   0.00118   0.01222   0.01340   2.88326
    R9        2.73874   0.00084  -0.00158   0.00144  -0.00014   2.73860
   R10        2.90346  -0.00219   0.00065  -0.00734  -0.00668   2.89677
   R11        2.05590   0.00113  -0.00020   0.00326   0.00305   2.05895
   R12        2.52928  -0.01172  -0.00094  -0.02265  -0.02359   2.50569
   R13        1.90576   0.00204   0.00388   0.00640   0.01028   1.91605
   R14        2.86741   0.01199   0.00267   0.03909   0.04176   2.90917
   R15        2.32533  -0.00021   0.00169   0.00084   0.00253   2.32786
   R16        2.05774  -0.00058  -0.00011  -0.00180  -0.00191   2.05583
   R17        2.05651   0.00018  -0.00017   0.00043   0.00026   2.05677
   R18        2.05910   0.00020  -0.00003   0.00059   0.00056   2.05966
   R19        2.84152  -0.00692  -0.00034  -0.02297  -0.02330   2.81822
   R20        2.29147  -0.00173   0.00049  -0.00148  -0.00099   2.29048
   R21        2.88979  -0.00421  -0.00008  -0.01495  -0.01502   2.87477
   R22        2.06247   0.00052   0.00014   0.00164   0.00178   2.06425
   R23        2.06250   0.00054   0.00014   0.00171   0.00185   2.06435
   R24        2.05692   0.00050  -0.00016   0.00141   0.00125   2.05817
   R25        2.05674   0.00009  -0.00017   0.00016  -0.00001   2.05673
   R26        2.05686   0.00050  -0.00015   0.00141   0.00126   2.05812
    A1        2.10115   0.00229   0.00036   0.01099   0.01133   2.11249
    A2        2.09023  -0.00102  -0.00022  -0.00471  -0.00495   2.08528
    A3        2.09180  -0.00127  -0.00014  -0.00628  -0.00644   2.08536
    A4        1.92888   0.00004   0.00097   0.00057   0.00154   1.93042
    A5        1.88204   0.00123  -0.00153   0.00752   0.00599   1.88803
    A6        1.92893  -0.00003   0.00098   0.00016   0.00113   1.93006
    A7        1.91001  -0.00057  -0.00003  -0.00331  -0.00335   1.90666
    A8        1.90396  -0.00014  -0.00036  -0.00195  -0.00232   1.90163
    A9        1.90982  -0.00053  -0.00004  -0.00301  -0.00305   1.90677
   A10        2.13965  -0.00207   0.00242  -0.00705  -0.00472   2.13494
   A11        2.01818   0.00271  -0.00407   0.00892   0.00476   2.02294
   A12        2.12527  -0.00064   0.00165  -0.00158  -0.00001   2.12526
   A13        1.88260   0.00011  -0.00150   0.00196   0.00035   1.88295
   A14        1.94032   0.00160   0.00159   0.01385   0.01543   1.95574
   A15        1.90675  -0.00113  -0.00021  -0.01221  -0.01250   1.89425
   A16        1.93963  -0.00104   0.00155  -0.00152  -0.00000   1.93963
   A17        1.88397   0.00007  -0.00142  -0.00662  -0.00808   1.87589
   A18        1.90938   0.00033  -0.00007   0.00365   0.00364   1.91302
   A19        2.11235   0.00321   0.00096   0.01570   0.01664   2.12899
   A20        2.07715  -0.00008  -0.00092   0.00176   0.00082   2.07798
   A21        2.09368  -0.00313  -0.00004  -0.01742  -0.01747   2.07621
   A22        1.99665   0.00009  -0.00522  -0.00276  -0.00804   1.98861
   A23        2.19627  -0.00462   0.00544  -0.01588  -0.01050   2.18577
   A24        2.09026   0.00453  -0.00022   0.01871   0.01843   2.10869
   A25        1.93529   0.00101   0.00132   0.00796   0.00925   1.94454
   A26        1.91080  -0.00095   0.00001  -0.00800  -0.00797   1.90282
   A27        1.91312   0.00045   0.00013   0.00416   0.00426   1.91738
   A28        1.89537  -0.00027  -0.00082  -0.00447  -0.00526   1.89011
   A29        1.90304  -0.00035  -0.00040   0.00104   0.00057   1.90361
   A30        1.90591   0.00010  -0.00025  -0.00084  -0.00109   1.90482
   A31        2.03750  -0.00157  -0.00304  -0.00836  -0.01140   2.02610
   A32        2.07596   0.00275  -0.00099   0.01081   0.00983   2.08579
   A33        2.16972  -0.00117   0.00402  -0.00245   0.00157   2.17129
   A34        1.96326  -0.00062   0.00281   0.00161   0.00440   1.96765
   A35        1.87851  -0.00081  -0.00172  -0.01048  -0.01239   1.86612
   A36        1.87857  -0.00080  -0.00171  -0.01020  -0.01210   1.86647
   A37        1.93250   0.00180   0.00116   0.01842   0.01959   1.95208
   A38        1.93283   0.00182   0.00119   0.01876   0.01995   1.95278
   A39        1.87473  -0.00157  -0.00192  -0.02065  -0.02295   1.85179
   A40        1.93293   0.00042   0.00119   0.00328   0.00445   1.93737
   A41        1.90672   0.00074  -0.00021   0.00474   0.00453   1.91125
   A42        1.93310   0.00043   0.00120   0.00345   0.00463   1.93773
   A43        1.89738  -0.00058  -0.00070  -0.00412  -0.00483   1.89255
   A44        1.89569  -0.00047  -0.00080  -0.00371  -0.00454   1.89115
   A45        1.89733  -0.00058  -0.00071  -0.00397  -0.00469   1.89265
    D1        1.05420  -0.00020   0.00037  -0.00860  -0.00823   1.04597
    D2        3.14122  -0.00012  -0.00002  -0.00769  -0.00772   3.13351
    D3       -1.05515  -0.00003  -0.00042  -0.00665  -0.00708  -1.06223
    D4       -2.08734  -0.00001   0.00038   0.00304   0.00342  -2.08392
    D5       -0.00032   0.00007  -0.00001   0.00395   0.00393   0.00362
    D6        2.08649   0.00016  -0.00041   0.00499   0.00457   2.09107
    D7        0.00594  -0.00033   0.00032  -0.01572  -0.01538  -0.00943
    D8        3.13415   0.00006  -0.00040   0.00911   0.00869  -3.14034
    D9       -3.13570  -0.00052   0.00031  -0.02737  -0.02703   3.12046
   D10       -0.00749  -0.00013  -0.00041  -0.00254  -0.00296  -0.01045
   D11        3.09998  -0.00110  -0.00222  -0.11256  -0.11478   2.98520
   D12       -1.05256  -0.00133  -0.00028  -0.10452  -0.10479  -1.15735
   D13        1.05636  -0.00064   0.00049  -0.09918  -0.09875   0.95761
   D14       -0.05487  -0.00073  -0.00293  -0.08800  -0.09090  -0.14577
   D15        2.07577  -0.00095  -0.00100  -0.07996  -0.08091   1.99486
   D16       -2.09849  -0.00026  -0.00022  -0.07462  -0.07487  -2.17336
   D17       -2.70448   0.00057   0.00030  -0.02076  -0.02048  -2.72496
   D18        0.44159   0.00041   0.00028  -0.03045  -0.03024   0.41135
   D19        1.44764  -0.00084  -0.00166  -0.03828  -0.03989   1.40775
   D20       -1.68947  -0.00099  -0.00168  -0.04797  -0.04965  -1.73913
   D21       -0.64615  -0.00066  -0.00162  -0.03767  -0.03925  -0.68540
   D22        2.49992  -0.00082  -0.00165  -0.04736  -0.04901   2.45090
   D23        1.06600   0.00033   0.00101   0.04672   0.04774   1.11374
   D24       -3.12622   0.00001   0.00082   0.04103   0.04184  -3.08438
   D25       -1.03599  -0.00017   0.00060   0.03764   0.03821  -0.99778
   D26       -3.12000   0.00084   0.00116   0.05748   0.05869  -3.06131
   D27       -1.02904   0.00053   0.00097   0.05179   0.05279  -0.97625
   D28        1.06119   0.00034   0.00075   0.04841   0.04916   1.11035
   D29       -1.04137   0.00050   0.00031   0.05069   0.05101  -0.99036
   D30        1.04959   0.00018   0.00013   0.04500   0.04511   1.09470
   D31        3.13982  -0.00000  -0.00009   0.04161   0.04148  -3.10188
   D32       -3.13343  -0.00022   0.00018  -0.01266  -0.01236   3.13739
   D33        0.00467   0.00017  -0.00001   0.00754   0.00747   0.01214
   D34        0.00365  -0.00005   0.00020  -0.00283  -0.00257   0.00108
   D35       -3.14144   0.00033   0.00001   0.01738   0.01727  -3.12418
   D36        3.13849   0.00024  -0.00016   0.01584   0.01577  -3.12892
   D37       -0.00103   0.00023  -0.00006   0.01440   0.01443   0.01340
   D38        0.00017  -0.00010   0.00001  -0.00296  -0.00304  -0.00287
   D39       -3.13935  -0.00011   0.00012  -0.00440  -0.00438   3.13946
   D40       -3.14027  -0.00001   0.00007  -0.00153  -0.00146   3.14146
   D41       -1.00684   0.00130   0.00215   0.01538   0.01735  -0.98949
   D42        1.00904  -0.00134  -0.00204  -0.01908  -0.02093   0.98811
   D43       -0.00087   0.00001  -0.00004   0.00001  -0.00003  -0.00091
   D44        2.13255   0.00132   0.00204   0.01692   0.01878   2.15133
   D45       -2.13475  -0.00133  -0.00215  -0.01754  -0.01951  -2.15426
   D46        1.05210  -0.00002   0.00025  -0.00045  -0.00019   1.05191
   D47        3.14147  -0.00001  -0.00001  -0.00050  -0.00051   3.14096
   D48       -1.05230   0.00001  -0.00027  -0.00025  -0.00053  -1.05282
   D49       -1.05050   0.00018  -0.00018  -0.00107  -0.00126  -1.05176
   D50        1.03887   0.00018  -0.00044  -0.00112  -0.00158   1.03729
   D51        3.12829   0.00020  -0.00071  -0.00087  -0.00160   3.12669
   D52       -3.12818  -0.00019   0.00072   0.00079   0.00153  -3.12665
   D53       -1.03881  -0.00019   0.00046   0.00074   0.00121  -1.03760
   D54        1.05061  -0.00016   0.00019   0.00099   0.00119   1.05180
         Item               Value     Threshold  Converged?
 Maximum Force            0.011994     0.000450     NO 
 RMS     Force            0.002123     0.000300     NO 
 Maximum Displacement     0.303947     0.001800     NO 
 RMS     Displacement     0.066186     0.001200     NO 
 Predicted change in Energy=-1.440714D-03
 GradGradGradGradGradGradGradGradGradGradGradGradGradGradGradGradGradGrad

                          Input orientation:                          
 ---------------------------------------------------------------------
 Center     Atomic      Atomic             Coordinates (Angstroms)
 Number     Number       Type             X           Y           Z
 ---------------------------------------------------------------------
      1          7           0       -3.531050    1.206031    0.787615
      2          6           0       -4.576114    0.380833    1.375240
      3          6           0       -2.313960    0.714678    0.561248
      4          8           0       -2.008060   -0.449630    0.843345
      5          6           0       -1.308895    1.682045   -0.056801
      6          7           0       -0.006204    1.047634   -0.030059
      7          6           0        1.117861    1.750637   -0.050505
      8          6           0       -1.698944    2.083421   -1.483882
      9          6           0        2.393671    0.890041   -0.010074
     10          8           0        1.186679    2.980189   -0.080835
     11          6           0        3.686541    1.633385   -0.014107
     12          8           0        2.298235   -0.317854    0.021572
     13          6           0        4.895389    0.710781    0.027374
     14          1           0       -3.728997    2.169130    0.557190
     15          1           0       -4.274899    0.023806    2.358247
     16          1           0       -5.470574    0.986734    1.473528
     17          1           0       -4.790882   -0.475356    0.738682
     18          1           0       -1.252939    2.571009    0.570683
     19          1           0        0.048158    0.035959    0.010034
     20          1           0       -2.638553    2.631514   -1.499564
     21          1           0       -0.922452    2.724601   -1.896859
     22          1           0       -1.795472    1.193371   -2.105514
     23          1           0        3.687478    2.264771   -0.905504
     24          1           0        3.664714    2.314596    0.839605
     25          1           0        4.910990    0.048673   -0.837258
     26          1           0        5.806857    1.305550    0.021906
     27          1           0        4.888922    0.098551    0.928094
 ---------------------------------------------------------------------
                    Distance matrix (angstroms):
                    1          2          3          4          5
     1  N    0.000000
     2  C    1.455477   0.000000
     3  C    1.331908   2.427216   0.000000
     4  O    2.250292   2.750905   1.236433   0.000000
     5  C    2.424376   3.797185   1.525758   2.417257   0.000000
     6  N    3.621909   4.827377   2.405461   2.648030   1.449206
     7  C    4.755146   6.027475   3.636598   3.925752   2.427734
     8  C    3.047314   4.399032   2.536583   3.453676   1.532906
     9  C    5.986524   7.124344   4.745413   4.679560   3.786614
    10  O    5.114568   6.487417   4.218919   4.777460   2.813120
    11  C    7.274546   8.471755   6.097628   6.123942   4.995856
    12  O    6.073681   7.041111   4.757070   4.385984   4.125182
    13  C    8.475147   9.572616   7.229090   7.047693   6.280413
    14  H    1.009871   2.141219   2.029231   3.146651   2.543842
    15  H    2.101869   1.088348   2.748053   2.767242   4.168860
    16  H    2.068894   1.084821   3.297042   3.801220   4.488311
    17  H    2.101578   1.088297   2.753690   2.784908   4.172698
    18  H    2.664585   4.060501   2.138181   3.125510   1.089552
    19  H    3.845053   4.833903   2.518749   2.271175   2.134400
    20  H    2.838968   4.133304   2.833119   3.921758   2.179690
    21  H    4.039460   5.435910   3.466752   4.331628   2.149901
    22  H    3.373809   4.528557   2.758549   3.382368   2.161662
    23  H    7.489641   8.777127   6.369568   6.547183   5.101334
    24  H    7.280840   8.481602   6.195301   6.310413   5.093176
    25  H    8.674545   9.747339   7.389133   7.137646   6.477962
    26  H    9.369777  10.511551   8.160128   8.051606   7.126140
    27  H    8.493655   9.479795   7.238487   6.919252   6.472280
                    6          7          8          9         10
     6  N    0.000000
     7  C    1.325954   0.000000
     8  C    2.460045   3.178003   0.000000
     9  C    2.405126   1.539464   4.510627   0.000000
    10  O    2.271633   1.231850   3.331599   2.414654   0.000000
    11  C    3.738947   2.571612   5.600555   1.491338   2.840360
    12  O    2.679115   2.382673   4.899995   1.212072   3.481828
    13  C    4.913490   3.918811   6.903134   2.508412   4.349305
    14  H    3.932151   4.902700   2.880006   6.280519   5.022824
    15  H    4.997398   6.153527   5.063547   7.129455   6.672193
    16  H    5.667789   6.805417   4.916726   8.003548   7.121020
    17  H    5.079725   6.363262   4.587724   7.351377   6.952959
    18  H    2.058133   2.584488   2.158217   4.057178   2.558054
    19  H    1.013928   2.021893   3.078352   2.496256   3.158003
    20  H    3.405493   4.121452   1.087896   5.529429   4.094725
    21  H    2.671455   2.918991   1.088394   4.233466   2.794942
    22  H    2.744127   3.608478   1.089923   4.693804   4.023092
    23  H    3.986366   2.756499   5.420420   2.089405   2.728717
    24  H    3.979591   2.756230   5.849859   2.089703   2.725964
    25  H    5.082154   4.231252   6.946190   2.780114   4.799631
    26  H    5.819012   4.710630   7.694773   3.438533   4.915386
    27  H    5.077507   4.231778   7.290906   2.780808   4.798789
                   11         12         13         14         15
    11  C    0.000000
    12  O    2.394995   0.000000
    13  C    1.521260   2.793445   0.000000
    14  H    7.456783   6.542133   8.762850   0.000000
    15  H    8.461876   6.984474   9.486785   2.853810   0.000000
    16  H    9.299676   8.010276  10.469991   2.295828   1.771891
    17  H    8.768135   7.127035   9.784515   2.855494   1.771551
    18  H    5.061579   4.610627   6.446516   2.508497   4.337726
    19  H    3.973687   2.277754   4.894010   4.372265   4.919662
    20  H    6.573406   5.948487   7.923449   2.373416   4.935633
    21  H    5.096894   4.828015   6.450226   3.769297   6.053026
    22  H    5.883882   4.854557   7.039156   3.432290   5.238378
    23  H    1.092354   3.075617   2.178118   7.559942   8.892325
    24  H    1.092405   3.076724   2.178647   7.400532   8.401871
    25  H    2.165218   2.774603   1.089137   9.005010   9.725864
    26  H    2.145813   3.865989   1.088372   9.589829  10.427999
    27  H    2.165451   2.776119   1.089112   8.870930   9.275049
                   16         17         18         19         20
    16  H    0.000000
    17  H    1.771916   0.000000
    18  H    4.594943   4.671788   0.000000
    19  H    5.788108   4.920232   2.904076   0.000000
    20  H    4.423225   4.392596   2.491889   4.029170   0.000000
    21  H    5.921580   5.670146   2.494308   3.436149   1.763948
    22  H    5.134064   4.454950   3.058473   3.035476   1.773758
    23  H    9.547937   9.060587   5.165329   4.364684   6.364439
    24  H    9.253030   8.904556   4.931670   4.354291   6.730774
    25  H   10.676918   9.842993   6.807239   4.936112   8.006580
    26  H   11.374942  10.770212   7.193279   5.897001   8.683203
    27  H   10.411798   9.698652   6.630478   4.927448   8.304957
                   21         22         23         24         25
    21  H    0.000000
    22  H    1.774928   0.000000
    23  H    4.737688   5.714076   0.000000
    24  H    5.357091   6.304323   1.745968   0.000000
    25  H    6.504798   6.920653   2.532337   3.082123   0.000000
    26  H    7.139956   7.895183   2.504389   2.505112   1.766488
    27  H    6.974852   7.421760   3.081892   2.533253   1.766195
                   26         27
    26  H    0.000000
    27  H    1.766530   0.000000
 Stoichiometry    C8H14N2O3
 Framework group  C1[X(C8H14N2O3)]
 Deg. of freedom    75
 Full point group                 C1      NOp   1
 Largest Abelian subgroup         C1      NOp   1
 Largest concise Abelian subgroup C1      NOp   1
                         Standard orientation:                         
 ---------------------------------------------------------------------
 Center     Atomic      Atomic             Coordinates (Angstroms)
 Number     Number       Type             X           Y           Z
 ---------------------------------------------------------------------
      1          7           0        3.554779    0.090731   -0.372584
      2          6           0        4.686975   -0.820754   -0.448344
      3          6           0        2.342537   -0.346471   -0.035983
      4          8           0        2.115134   -1.535189    0.217010
      5          6           0        1.241144    0.708588    0.005496
      6          7           0       -0.024802    0.023981    0.175471
      7          6           0       -1.173423    0.567174   -0.203693
      8          6           0        1.468712    1.734707    1.121334
      9          6           0       -2.401885   -0.322925    0.058135
     10          8           0       -1.295902    1.670952   -0.736730
     11          6           0       -3.718332    0.235012   -0.365848
     12          8           0       -2.253711   -1.405796    0.582116
     13          6           0       -4.877551   -0.705314   -0.072195
     14          1           0        3.688416    1.068185   -0.588373
     15          1           0        4.501217   -1.602043   -1.182908
     16          1           0        5.560869   -0.250905   -0.745692
     17          1           0        4.871982   -1.282404    0.519666
     18          1           0        1.211734    1.216567   -0.957943
     19          1           0       -0.032830   -0.900091    0.592694
     20          1           0        2.378425    2.307561    0.954667
     21          1           0        0.628693    2.426414    1.143939
     22          1           0        1.539086    1.226489    2.082945
     23          1           0       -3.835104    1.195127    0.141873
     24          1           0       -3.639049    0.463357   -1.431174
     25          1           0       -4.952535   -0.911251    0.994664
     26          1           0       -5.808839   -0.247770   -0.400692
     27          1           0       -4.755139   -1.652056   -0.596464
 ---------------------------------------------------------------------
 Rotational constants (GHZ):           1.9871223           0.3309019           0.3008120
 Standard basis: 6-311+G(d,p) (5D, 7F)
 There are   383 symmetry adapted cartesian basis functions of A   symmetry.
 There are   370 symmetry adapted basis functions of A   symmetry.
   370 basis functions,   580 primitive gaussians,   383 cartesian basis functions
    50 alpha electrons       50 beta electrons
       nuclear repulsion energy       812.0245698737 Hartrees.
 NAtoms=   27 NActive=   27 NUniq=   27 SFac= 1.00D+00 NAtFMM=   60 NAOKFM=F Big=F
 Integral buffers will be    131072 words long.
 Raffenetti 2 integral format.
 Two-electron integral symmetry is turned on.
 ------------------------------------------------------------------------------
 Polarizable Continuum Model (PCM)
 =================================
 Model                : PCM.
 Atomic radii         : SMD-Coulomb.
 Polarization charges : Total charges.
 Charge compensation  : None.
 Solution method      : On-the-fly selection.
 Cavity type          : VdW (van der Waals Surface) (Alpha=1.000).
 Cavity algorithm     : GePol (No added spheres)
                        Default sphere list used, NSphG=   27.
                        Lebedev-Laikov grids with approx.  5.0 points / Ang**2.
                        Smoothing algorithm: York/Karplus (Gamma=1.0000).
                        Polarization charges: spherical gaussians, with
                                              point-specific exponents (IZeta= 3).
                        Self-potential: point-specific (ISelfS= 7).
                        Self-field    : sphere-specific E.n sum rule (ISelfD= 2).
 1st derivatives      : Analytical E(r).r(x)/FMM algorithm (CHGder, D1EAlg=3).
                        Cavity 1st derivative terms included.
 Solvent              : Water, Eps=  78.355300 Eps(inf)=   1.777849
 ------------------------------------------------------------------------------
 ------------------------------------------------------------------------------
 Atomic radii for non-electrostatic terms: SMD-CDS.
 ------------------------------------------------------------------------------
 Nuclear repulsion after PCM non-electrostatic terms =      812.0349205306 Hartrees.
 One-electron integrals computed using PRISM.
 NBasis=   370 RedAO= T EigKep=  4.84D-06  NBF=   370
 NBsUse=   370 1.00D-06 EigRej= -1.00D+00 NBFU=   370
 Initial guess from the checkpoint file:  "2KT_3D.chk"
 B after Tr=    -0.000000    0.000000   -0.000000
         Rot=    0.999991    0.004324    0.000230   -0.000140 Ang=   0.50 deg.
 ExpMin= 4.38D-02 ExpMax= 8.59D+03 ExpMxC= 1.30D+03 IAcc=3 IRadAn=         5 AccDes= 0.00D+00
 Harris functional with IExCor= 1009 and IRadAn=       5 diagonalized for initial guess.
 HarFok:  IExCor= 1009 AccDes= 0.00D+00 IRadAn=         5 IDoV= 1 UseB2=F ITyADJ=14
 ICtDFT=  3500011 ScaDFX=  1.000000  1.000000  1.000000  1.000000
 FoFCou: FMM=F IPFlag=           0 FMFlag=      100000 FMFlg1=           0
         NFxFlg=           0 DoJE=T BraDBF=F KetDBF=T FulRan=T
         wScrn=  0.000000 ICntrl=       500 IOpCl=  0 I1Cent=   200000004 NGrid=           0
         NMat0=    1 NMatS0=      1 NMatT0=    0 NMatD0=    1 NMtDS0=    0 NMtDT0=    0
 Petite list used in FoFCou.
 Requested convergence on RMS density matrix=1.00D-08 within 128 cycles.
 Requested convergence on MAX density matrix=1.00D-06.
 Requested convergence on             energy=1.00D-06.
 No special actions if energy rises.
 Inv3:  Mode=1 IEnd=    11501292.
 Iteration    1 A*A^-1 deviation from unit magnitude is 4.33D-15 for   1941.
 Iteration    1 A*A^-1 deviation from orthogonality  is 1.83D-15 for   1601    628.
 Iteration    1 A^-1*A deviation from unit magnitude is 4.33D-15 for   1941.
 Iteration    1 A^-1*A deviation from orthogonality  is 6.30D-15 for   1429   1396.
 Error on total polarization charges =  0.05787
 SCF Done:  E(RM052X) =  -648.620684957     A.U. after   14 cycles
            NFock= 14  Conv=0.39D-08     -V/T= 2.0038
 SMD-CDS (non-electrostatic) energy       (kcal/mol) =       6.50
 (included in total energy above)
 D1PCM: PCM CHGder 1st derivatives, ID1Alg=3 FixD1E=F DoIter=F DoCFld=F I1PDM=0.
 Calling FoFJK, ICntrl=      2127 FMM=F ISym2X=0 I1Cent= 0 IOpClX= 0 NMat=1 NMatS=1 NMatT=0.
 ***** Axes restored to original set *****
 -------------------------------------------------------------------
 Center     Atomic                   Forces (Hartrees/Bohr)
 Number     Number              X              Y              Z
 -------------------------------------------------------------------
      1        7           0.000645552    0.000992845   -0.000929065
      2        6          -0.000376946    0.000338605   -0.000304522
      3        6          -0.000648522    0.002408679    0.002134700
      4        8           0.000864445   -0.000415534   -0.002017714
      5        6          -0.000548881    0.000280256   -0.001146409
      6        7           0.000571017   -0.002215185   -0.000544656
      7        6          -0.001630750    0.000365395    0.001182648
      8        6           0.000410515   -0.001644881    0.000638793
      9        6           0.002682340   -0.001983442   -0.000436824
     10        8           0.000667742   -0.000936157   -0.000494631
     11        6           0.000481579   -0.003297752    0.000210767
     12        8          -0.001100990    0.002451349   -0.000060988
     13        6          -0.000832625    0.001642627   -0.000052847
     14        1           0.001082254   -0.001762946   -0.000028993
     15        1           0.000199367    0.000087233    0.000126455
     16        1          -0.000217623    0.000099159   -0.000023256
     17        1           0.000010891   -0.000098399   -0.000133011
     18        1          -0.001462603    0.000266309    0.000239019
     19        1          -0.000284826    0.001892075    0.000477835
     20        1          -0.000823009    0.000042959    0.001412015
     21        1           0.000299558   -0.000104836   -0.000106798
     22        1          -0.000105046    0.000042559   -0.000095186
     23        1          -0.000082384    0.000933570   -0.000029742
     24        1          -0.000023084    0.000945950   -0.000056616
     25        1          -0.000105847   -0.000038059   -0.000125473
     26        1           0.000433587   -0.000263596    0.000023826
     27        1          -0.000105710   -0.000028783    0.000140674
 -------------------------------------------------------------------
 Cartesian Forces:  Max     0.003297752 RMS     0.001013665

 GradGradGradGradGradGradGradGradGradGradGradGradGradGradGradGradGradGrad
 Berny optimization.
 Using GEDIIS/GDIIS optimizer.
 FormGI is forming the generalized inverse of G from B-inverse, IUseBI=4.
 Internal  Forces:  Max     0.002541071 RMS     0.000790012
 Search for a local minimum.
 Step number   3 out of a maximum of  135
 All quantities printed in internal units (Hartrees-Bohrs-Radians)
 Mixed Optimization -- En-DIIS/RFO-DIIS
 Update second derivatives using D2CorX and points    1    2    3
 DE= -1.30D-03 DEPred=-1.44D-03 R= 9.04D-01
 TightC=F SS=  1.41D+00  RLast= 3.09D-01 DXNew= 8.4853D-01 9.2808D-01
 Trust test= 9.04D-01 RLast= 3.09D-01 DXMaxT set to 8.49D-01
 ITU=  1  1  0
 Use linear search instead of GDIIS.
     Eigenvalues ---    0.00370   0.00375   0.00649   0.00673   0.00753
     Eigenvalues ---    0.00813   0.00832   0.00886   0.01431   0.01450
     Eigenvalues ---    0.01487   0.01719   0.02382   0.02383   0.04056
     Eigenvalues ---    0.04610   0.04986   0.05166   0.05535   0.05601
     Eigenvalues ---    0.05697   0.05809   0.06824   0.07381   0.07644
     Eigenvalues ---    0.08974   0.12882   0.15584   0.15999   0.16000
     Eigenvalues ---    0.16000   0.16000   0.16000   0.16000   0.16000
     Eigenvalues ---    0.16000   0.16115   0.16401   0.17696   0.18476
     Eigenvalues ---    0.19862   0.21993   0.22015   0.24152   0.24999
     Eigenvalues ---    0.25000   0.25000   0.25684   0.26580   0.29479
     Eigenvalues ---    0.29939   0.31741   0.32156   0.34310   0.34798
     Eigenvalues ---    0.34806   0.34807   0.34810   0.34812   0.34814
     Eigenvalues ---    0.34817   0.34817   0.34819   0.34819   0.34873
     Eigenvalues ---    0.35525   0.36368   0.36754   0.52477   0.53397
     Eigenvalues ---    0.55840   0.57008   0.97703   0.98568   1.01600
 RFO step:  Lambda=-6.81270774D-04 EMin= 3.69596193D-03
 Quartic linear search produced a step of  0.00095.
 Iteration  1 RMS(Cart)=  0.03921632 RMS(Int)=  0.00065783
 Iteration  2 RMS(Cart)=  0.00097703 RMS(Int)=  0.00014867
 Iteration  3 RMS(Cart)=  0.00000047 RMS(Int)=  0.00014867
 Variable       Old X    -DE/DX   Delta X   Delta X   Delta X     New X
                                 (Linear)    (Quad)   (Total)
    R1        2.75045  -0.00010  -0.00000  -0.00097  -0.00097   2.74948
    R2        2.51694  -0.00158  -0.00001  -0.00644  -0.00646   2.51048
    R3        1.90838  -0.00189   0.00001  -0.00059  -0.00058   1.90779
    R4        2.05668   0.00014   0.00000   0.00037   0.00037   2.05705
    R5        2.05001   0.00023  -0.00000   0.00047   0.00047   2.05049
    R6        2.05658   0.00015   0.00000   0.00041   0.00041   2.05699
    R7        2.33652   0.00015   0.00001   0.00233   0.00234   2.33886
    R8        2.88326  -0.00254   0.00001  -0.00441  -0.00440   2.87887
    R9        2.73860   0.00084  -0.00000   0.00179   0.00179   2.74039
   R10        2.89677  -0.00211  -0.00001  -0.00851  -0.00852   2.88826
   R11        2.05895   0.00028   0.00000   0.00147   0.00147   2.06043
   R12        2.50569   0.00021  -0.00002  -0.00555  -0.00557   2.50011
   R13        1.91605  -0.00188   0.00001   0.00011   0.00012   1.91617
   R14        2.90917   0.00090   0.00004   0.01347   0.01351   2.92267
   R15        2.32786  -0.00088   0.00000   0.00022   0.00022   2.32808
   R16        2.05583   0.00071  -0.00000   0.00155   0.00154   2.05737
   R17        2.05677   0.00019   0.00000   0.00056   0.00056   2.05733
   R18        2.05966   0.00002   0.00000   0.00020   0.00020   2.05985
   R19        2.81822  -0.00026  -0.00002  -0.00648  -0.00650   2.81172
   R20        2.29048  -0.00236  -0.00000  -0.00241  -0.00241   2.28808
   R21        2.87477  -0.00128  -0.00001  -0.00793  -0.00795   2.86682
   R22        2.06425   0.00056   0.00000   0.00208   0.00208   2.06633
   R23        2.06435   0.00054   0.00000   0.00204   0.00204   2.06638
   R24        2.05817   0.00012   0.00000   0.00061   0.00061   2.05878
   R25        2.05673   0.00022  -0.00000   0.00057   0.00057   2.05730
   R26        2.05812   0.00013   0.00000   0.00063   0.00063   2.05875
    A1        2.11249   0.00139   0.00001   0.00911   0.00911   2.12160
    A2        2.08528   0.00009  -0.00000   0.00051   0.00049   2.08577
    A3        2.08536  -0.00148  -0.00001  -0.00953  -0.00954   2.07582
    A4        1.93042  -0.00029   0.00000  -0.00125  -0.00125   1.92917
    A5        1.88803   0.00009   0.00001   0.00166   0.00166   1.88970
    A6        1.93006  -0.00005   0.00000   0.00025   0.00025   1.93031
    A7        1.90666   0.00009  -0.00000  -0.00022  -0.00022   1.90644
    A8        1.90163   0.00015  -0.00000   0.00010   0.00010   1.90173
    A9        1.90677   0.00001  -0.00000  -0.00053  -0.00054   1.90623
   A10        2.13494   0.00253  -0.00000   0.00987   0.00894   2.14388
   A11        2.02294  -0.00173   0.00000  -0.00670  -0.00761   2.01533
   A12        2.12526  -0.00079  -0.00000  -0.00242  -0.00332   2.12194
   A13        1.88295   0.00004   0.00000  -0.00249  -0.00245   1.88049
   A14        1.95574  -0.00193   0.00001  -0.01164  -0.01164   1.94411
   A15        1.89425   0.00036  -0.00001  -0.00573  -0.00575   1.88850
   A16        1.93963   0.00132  -0.00000   0.00752   0.00748   1.94711
   A17        1.87589   0.00020  -0.00001   0.01118   0.01113   1.88702
   A18        1.91302   0.00006   0.00000   0.00176   0.00164   1.91466
   A19        2.12899   0.00121   0.00002   0.00968   0.00969   2.13867
   A20        2.07798  -0.00078   0.00000  -0.00389  -0.00391   2.07407
   A21        2.07621  -0.00043  -0.00002  -0.00583  -0.00586   2.07035
   A22        1.98861   0.00012  -0.00001  -0.00287  -0.00296   1.98564
   A23        2.18577   0.00078  -0.00001   0.00230   0.00220   2.18797
   A24        2.10869  -0.00089   0.00002   0.00092   0.00085   2.10954
   A25        1.94454  -0.00221   0.00001  -0.01237  -0.01237   1.93218
   A26        1.90282   0.00027  -0.00001   0.00091   0.00090   1.90372
   A27        1.91738   0.00054   0.00000   0.00449   0.00449   1.92187
   A28        1.89011   0.00092  -0.00001   0.00391   0.00390   1.89401
   A29        1.90361   0.00062   0.00000   0.00173   0.00174   1.90535
   A30        1.90482  -0.00011  -0.00000   0.00152   0.00151   1.90633
   A31        2.02610   0.00040  -0.00001  -0.00204  -0.00206   2.02404
   A32        2.08579  -0.00168   0.00001  -0.00460  -0.00459   2.08120
   A33        2.17129   0.00128   0.00000   0.00664   0.00664   2.17793
   A34        1.96765   0.00040   0.00000   0.00541   0.00539   1.97304
   A35        1.86612  -0.00014  -0.00001  -0.00322  -0.00327   1.86285
   A36        1.86647  -0.00008  -0.00001  -0.00248  -0.00253   1.86394
   A37        1.95208   0.00012   0.00002   0.00635   0.00637   1.95845
   A38        1.95278   0.00007   0.00002   0.00622   0.00624   1.95901
   A39        1.85179  -0.00043  -0.00002  -0.01410  -0.01414   1.83765
   A40        1.93737  -0.00026   0.00000  -0.00057  -0.00057   1.93680
   A41        1.91125   0.00075   0.00000   0.00638   0.00638   1.91763
   A42        1.93773  -0.00026   0.00000  -0.00054  -0.00054   1.93719
   A43        1.89255  -0.00018  -0.00000  -0.00177  -0.00178   1.89077
   A44        1.89115   0.00013  -0.00000  -0.00182  -0.00183   1.88932
   A45        1.89265  -0.00019  -0.00000  -0.00183  -0.00184   1.89081
    D1        1.04597   0.00011  -0.00001   0.00723   0.00723   1.05320
    D2        3.13351   0.00011  -0.00001   0.00724   0.00724   3.14075
    D3       -1.06223   0.00014  -0.00001   0.00776   0.00777  -1.05446
    D4       -2.08392  -0.00007   0.00000  -0.00199  -0.00199  -2.08591
    D5        0.00362  -0.00007   0.00000  -0.00197  -0.00198   0.00164
    D6        2.09107  -0.00004   0.00000  -0.00145  -0.00145   2.08961
    D7       -0.00943   0.00048  -0.00001   0.03160   0.03177   0.02234
    D8       -3.14034  -0.00070   0.00001  -0.04635  -0.04649   3.09635
    D9        3.12046   0.00067  -0.00003   0.04088   0.04101  -3.12172
   D10       -0.01045  -0.00051  -0.00000  -0.03707  -0.03726  -0.04771
   D11        2.98520   0.00045  -0.00011   0.00098   0.00072   2.98592
   D12       -1.15735   0.00091  -0.00010   0.00123   0.00099  -1.15636
   D13        0.95761   0.00000  -0.00009  -0.00786  -0.00807   0.94954
   D14       -0.14577  -0.00075  -0.00009  -0.07659  -0.07656  -0.22233
   D15        1.99486  -0.00030  -0.00008  -0.07633  -0.07628   1.91857
   D16       -2.17336  -0.00120  -0.00007  -0.08542  -0.08534  -2.25871
   D17       -2.72496  -0.00084  -0.00002  -0.02940  -0.02942  -2.75438
   D18        0.41135  -0.00095  -0.00003  -0.03902  -0.03906   0.37230
   D19        1.40775   0.00069  -0.00004  -0.01800  -0.01800   1.38975
   D20       -1.73913   0.00058  -0.00005  -0.02762  -0.02764  -1.76677
   D21       -0.68540  -0.00029  -0.00004  -0.03157  -0.03163  -0.71704
   D22        2.45090  -0.00040  -0.00005  -0.04119  -0.04127   2.40963
   D23        1.11374  -0.00020   0.00005   0.01275   0.01280   1.12655
   D24       -3.08438  -0.00025   0.00004   0.01055   0.01060  -3.07378
   D25       -0.99778   0.00011   0.00004   0.01567   0.01572  -0.98206
   D26       -3.06131  -0.00054   0.00006   0.00679   0.00683  -3.05448
   D27       -0.97625  -0.00059   0.00005   0.00459   0.00463  -0.97162
   D28        1.11035  -0.00024   0.00005   0.00971   0.00974   1.12010
   D29       -0.99036   0.00056   0.00005   0.02638   0.02643  -0.96394
   D30        1.09470   0.00051   0.00004   0.02418   0.02423   1.11892
   D31       -3.10188   0.00086   0.00004   0.02930   0.02934  -3.07254
   D32        3.13739   0.00021  -0.00001   0.00868   0.00867  -3.13712
   D33        0.01214  -0.00029   0.00001  -0.01588  -0.01587  -0.00374
   D34        0.00108   0.00032  -0.00000   0.01828   0.01828   0.01937
   D35       -3.12418  -0.00018   0.00002  -0.00627  -0.00626  -3.13044
   D36       -3.12892  -0.00020   0.00002  -0.00536  -0.00535  -3.13427
   D37        0.01340  -0.00024   0.00001  -0.01021  -0.01018   0.00322
   D38       -0.00287   0.00029  -0.00000   0.01801   0.01799   0.01512
   D39        3.13946   0.00025  -0.00000   0.01316   0.01316  -3.13057
   D40        3.14146  -0.00003  -0.00000  -0.00344  -0.00344   3.13801
   D41       -0.98949   0.00027   0.00002   0.00576   0.00575  -0.98374
   D42        0.98811  -0.00032  -0.00002  -0.01300  -0.01301   0.97510
   D43       -0.00091   0.00001  -0.00000   0.00167   0.00168   0.00078
   D44        2.15133   0.00031   0.00002   0.01087   0.01088   2.16221
   D45       -2.15426  -0.00028  -0.00002  -0.00789  -0.00788  -2.16214
   D46        1.05191  -0.00011  -0.00000  -0.00171  -0.00172   1.05019
   D47        3.14096  -0.00001  -0.00000  -0.00016  -0.00016   3.14080
   D48       -1.05282   0.00008  -0.00000   0.00134   0.00134  -1.05148
   D49       -1.05176  -0.00029  -0.00000  -0.00598  -0.00600  -1.05776
   D50        1.03729  -0.00020  -0.00000  -0.00443  -0.00444   1.03285
   D51        3.12669  -0.00011  -0.00000  -0.00293  -0.00294   3.12375
   D52       -3.12665   0.00012   0.00000   0.00344   0.00345  -3.12320
   D53       -1.03760   0.00022   0.00000   0.00499   0.00501  -1.03259
   D54        1.05180   0.00031   0.00000   0.00650   0.00651   1.05831
         Item               Value     Threshold  Converged?
 Maximum Force            0.002541     0.000450     NO 
 RMS     Force            0.000790     0.000300     NO 
 Maximum Displacement     0.144123     0.001800     NO 
 RMS     Displacement     0.039216     0.001200     NO 
 Predicted change in Energy=-3.531257D-04
 GradGradGradGradGradGradGradGradGradGradGradGradGradGradGradGradGradGrad

                          Input orientation:                          
 ---------------------------------------------------------------------
 Center     Atomic      Atomic             Coordinates (Angstroms)
 Number     Number       Type             X           Y           Z
 ---------------------------------------------------------------------
      1          7           0       -3.519953    1.206790    0.801996
      2          6           0       -4.590707    0.376983    1.332862
      3          6           0       -2.303167    0.718601    0.587539
      4          8           0       -2.007712   -0.464416    0.799690
      5          6           0       -1.305927    1.691859   -0.028190
      6          7           0        0.001891    1.066350    0.007747
      7          6           0        1.125491    1.763085   -0.041437
      8          6           0       -1.706845    2.073936   -1.452720
      9          6           0        2.402118    0.891220    0.004246
     10          8           0        1.200597    2.989915   -0.125049
     11          6           0        3.695021    1.626350   -0.038474
     12          8           0        2.294005   -0.312665    0.074980
     13          6           0        4.901968    0.708805    0.014848
     14          1           0       -3.700725    2.177616    0.592154
     15          1           0       -4.322422   -0.011061    2.313870
     16          1           0       -5.482619    0.988467    1.422085
     17          1           0       -4.794380   -0.458561    0.665597
     18          1           0       -1.271843    2.585075    0.596171
     19          1           0        0.059263    0.057033    0.086300
     20          1           0       -2.648745    2.619939   -1.454186
     21          1           0       -0.936000    2.713074   -1.879976
     22          1           0       -1.811181    1.178643   -2.065683
     23          1           0        3.679989    2.237310   -0.945196
     24          1           0        3.680437    2.339695    0.790158
     25          1           0        4.905612    0.019887   -0.829131
     26          1           0        5.816677    1.298119   -0.020209
     27          1           0        4.906658    0.123049    0.933411
 ---------------------------------------------------------------------
                    Distance matrix (angstroms):
                    1          2          3          4          5
     1  N    0.000000
     2  C    1.454962   0.000000
     3  C    1.328491   2.430030   0.000000
     4  O    2.253843   2.768409   1.237671   0.000000
     5  C    2.413796   3.790929   1.523431   2.414003   0.000000
     6  N    3.613023   4.829401   2.402161   2.647436   1.450151
     7  C    4.754051   6.040273   3.638991   3.935254   2.432497
     8  C    3.020438   4.353823   2.520950   3.406919   1.528399
     9  C    5.983888   7.136474   4.744442   4.681568   3.793635
    10  O    5.130550   6.518598   4.235920   4.804247   2.824357
    11  C    7.275869   8.490864   6.098701   6.131475   5.001387
    12  O    6.053049   7.032577   4.739221   4.364975   4.121683
    13  C    8.473272   9.589481   7.227866   7.052383   6.285396
    14  H    1.009561   2.140793   2.020375   3.144789   2.521080
    15  H    2.100686   1.088545   2.754998   2.802883   4.181438
    16  H    2.069839   1.085072   3.298213   3.817489   4.476920
    17  H    2.101467   1.088512   2.756437   2.789899   4.156315
    18  H    2.645001   4.053793   2.132470   3.143616   1.090332
    19  H    3.826872   4.824781   2.503994   2.247937   2.132957
    20  H    2.801134   4.070591   2.811256   3.873516   2.167478
    21  H    4.017297   5.397827   3.454809   4.292507   2.146820
    22  H    3.338304   4.463018   2.737386   3.308871   2.161030
    23  H    7.480229   8.778086   6.360339   6.534057   5.098802
    24  H    7.288981   8.518134   6.202622   6.341780   5.094430
    25  H    8.663686   9.745861   7.379814   7.119105   6.482300
    26  H    9.373207  10.535318   8.163153   8.062247   7.133483
    27  H    8.497031   9.509152   7.242643   6.940569   6.479355
                    6          7          8          9         10
     6  N    0.000000
     7  C    1.323004   0.000000
     8  C    2.463325   3.179697   0.000000
     9  C    2.406610   1.546613   4.517205   0.000000
    10  O    2.270382   1.231967   3.324898   2.421753   0.000000
    11  C    3.735632   2.573167   5.601837   1.487898   2.844109
    12  O    2.675816   2.384893   4.902706   1.210797   3.484621
    13  C    4.913110   3.921282   6.906066   2.506519   4.350078
    14  H    3.909707   4.885247   2.857940   6.264594   5.019678
    15  H    5.017838   6.194742   5.037425   7.167141   6.742249
    16  H    5.664474   6.812419   4.868184   8.011791   7.145963
    17  H    5.075661   6.362428   4.520363   7.351794   6.961096
    18  H    2.067648   2.613317   2.156025   4.088705   2.607109
    19  H    1.013993   2.015881   3.091216   2.488286   3.154221
    20  H    3.402463   4.120063   1.088714   5.534140   4.089122
    21  H    2.674853   2.921036   1.088691   4.244111   2.778751
    22  H    2.756620   3.614304   1.090027   4.703096   4.014670
    23  H    3.975885   2.750842   5.413156   2.084791   2.717801
    24  H    3.970552   2.748050   5.841570   2.085627   2.722131
    25  H    5.083496   4.236569   6.952162   2.778709   4.800409
    26  H    5.819471   4.714219   7.697880   3.438805   4.917454
    27  H    5.079706   4.235241   7.296437   2.779596   4.803555
                   11         12         13         14         15
    11  C    0.000000
    12  O    2.394889   0.000000
    13  C    1.517054   2.801515   0.000000
    14  H    7.443027   6.511970   8.746257   0.000000
    15  H    8.514342   6.991474   9.533786   2.853264   0.000000
    16  H    9.314998   7.998970  10.483233   2.297390   1.772115
    17  H    8.769977   7.114445   9.788023   2.854978   1.771949
    18  H    5.098202   4.624263   6.478755   2.462825   4.358491
    19  H    3.961951   2.265144   4.886891   4.346294   4.915879
    20  H    6.575319   5.947209   7.926144   2.343037   4.890972
    21  H    5.100829   4.838376   6.456727   3.747246   6.039628
    22  H    5.884580   4.864051   7.043843   3.410634   5.186734
    23  H    1.093455   3.076375   2.179735   7.539361   8.928341
    24  H    1.093483   3.077123   2.180148   7.385597   8.479004
    25  H    2.161340   2.783612   1.089459   8.985816   9.748642
    26  H    2.146973   3.874648   1.088675   9.577549  10.486334
    27  H    2.161605   2.784368   1.089444   8.855774   9.332715
                   16         17         18         19         20
    16  H    0.000000
    17  H    1.771958   0.000000
    18  H    4.578419   4.655836   0.000000
    19  H    5.776188   4.915209   2.902208   0.000000
    20  H    4.354937   4.309802   2.470028   4.034215   0.000000
    21  H    5.877892   5.605917   2.502095   3.451282   1.767333
    22  H    5.067558   4.363463   3.058497   3.063920   1.775606
    23  H    9.545523   9.037550   5.197826   4.350546   6.360688
    24  H    9.283682   8.925709   4.962149   4.338072   6.721173
    25  H   10.673400   9.826137   6.839052   4.932189   8.013693
    26  H   11.395182  10.777327   7.230719   5.890624   8.687166
    27  H   10.436705   9.722146   6.659518   4.921299   8.307778
                   21         22         23         24         25
    21  H    0.000000
    22  H    1.776206   0.000000
    23  H    4.733659   5.703440   0.000000
    24  H    5.346076   6.297757   1.738372   0.000000
    25  H    6.517819   6.927271   2.536254   3.082963   0.000000
    26  H    7.145591   7.898256   2.510600   2.510995   1.765862
    27  H    6.982838   7.432241   3.082852   2.537254   1.765559
                   26         27
    26  H    0.000000
    27  H    1.765875   0.000000
 Stoichiometry    C8H14N2O3
 Framework group  C1[X(C8H14N2O3)]
 Deg. of freedom    75
 Full point group                 C1      NOp   1
 Largest Abelian subgroup         C1      NOp   1
 Largest concise Abelian subgroup C1      NOp   1
                         Standard orientation:                         
 ---------------------------------------------------------------------
 Center     Atomic      Atomic             Coordinates (Angstroms)
 Number     Number       Type             X           Y           Z
 ---------------------------------------------------------------------
      1          7           0        3.547429    0.089218   -0.387345
      2          6           0        4.699817   -0.798382   -0.420235
      3          6           0        2.337081   -0.354373   -0.066136
      4          8           0        2.114493   -1.531356    0.245302
      5          6           0        1.243267    0.704798   -0.015442
      6          7           0       -0.026858    0.021568    0.135944
      7          6           0       -1.178231    0.575670   -0.207060
      8          6           0        1.483945    1.700804    1.118599
      9          6           0       -2.405960   -0.330076    0.046543
     10          8           0       -1.313095    1.705622   -0.679036
     11          6           0       -3.726623    0.241784   -0.331167
     12          8           0       -2.240534   -1.431152    0.522249
     13          6           0       -4.882390   -0.702540   -0.059306
     14          1           0        3.665209    1.065626   -0.615313
     15          1           0        4.547119   -1.595623   -1.145509
     16          1           0        5.569520   -0.216260   -0.706819
     17          1           0        4.871240   -1.239892    0.559837
     18          1           0        1.233732    1.230561   -0.970589
     19          1           0       -0.033397   -0.922043    0.507074
     20          1           0        2.397089    2.267839    0.945577
     21          1           0        0.648080    2.396865    1.164177
     22          1           0        1.564542    1.173956    2.069438
     23          1           0       -3.827730    1.185761    0.211353
     24          1           0       -3.659846    0.521285   -1.386215
     25          1           0       -4.940852   -0.952563    0.999463
     26          1           0       -5.820147   -0.233805   -0.352757
     27          1           0       -4.770890   -1.628239   -0.622810
 ---------------------------------------------------------------------
 Rotational constants (GHZ):           2.0061238           0.3308526           0.3001157
 Standard basis: 6-311+G(d,p) (5D, 7F)
 There are   383 symmetry adapted cartesian basis functions of A   symmetry.
 There are   370 symmetry adapted basis functions of A   symmetry.
   370 basis functions,   580 primitive gaussians,   383 cartesian basis functions
    50 alpha electrons       50 beta electrons
       nuclear repulsion energy       812.3671060998 Hartrees.
 NAtoms=   27 NActive=   27 NUniq=   27 SFac= 1.00D+00 NAtFMM=   60 NAOKFM=F Big=F
 Integral buffers will be    131072 words long.
 Raffenetti 2 integral format.
 Two-electron integral symmetry is turned on.
 ------------------------------------------------------------------------------
 Polarizable Continuum Model (PCM)
 =================================
 Model                : PCM.
 Atomic radii         : SMD-Coulomb.
 Polarization charges : Total charges.
 Charge compensation  : None.
 Solution method      : On-the-fly selection.
 Cavity type          : VdW (van der Waals Surface) (Alpha=1.000).
 Cavity algorithm     : GePol (No added spheres)
                        Default sphere list used, NSphG=   27.
                        Lebedev-Laikov grids with approx.  5.0 points / Ang**2.
                        Smoothing algorithm: York/Karplus (Gamma=1.0000).
                        Polarization charges: spherical gaussians, with
                                              point-specific exponents (IZeta= 3).
                        Self-potential: point-specific (ISelfS= 7).
                        Self-field    : sphere-specific E.n sum rule (ISelfD= 2).
 1st derivatives      : Analytical E(r).r(x)/FMM algorithm (CHGder, D1EAlg=3).
                        Cavity 1st derivative terms included.
 Solvent              : Water, Eps=  78.355300 Eps(inf)=   1.777849
 ------------------------------------------------------------------------------
 ------------------------------------------------------------------------------
 Atomic radii for non-electrostatic terms: SMD-CDS.
 ------------------------------------------------------------------------------
 Nuclear repulsion after PCM non-electrostatic terms =      812.3774501473 Hartrees.
 One-electron integrals computed using PRISM.
 NBasis=   370 RedAO= T EigKep=  5.11D-06  NBF=   370
 NBsUse=   370 1.00D-06 EigRej= -1.00D+00 NBFU=   370
 Initial guess from the checkpoint file:  "2KT_3D.chk"
 B after Tr=    -0.000000   -0.000000    0.000000
         Rot=    0.999978   -0.006644   -0.000398   -0.000208 Ang=  -0.76 deg.
 ExpMin= 4.38D-02 ExpMax= 8.59D+03 ExpMxC= 1.30D+03 IAcc=3 IRadAn=         5 AccDes= 0.00D+00
 Harris functional with IExCor= 1009 and IRadAn=       5 diagonalized for initial guess.
 HarFok:  IExCor= 1009 AccDes= 0.00D+00 IRadAn=         5 IDoV= 1 UseB2=F ITyADJ=14
 ICtDFT=  3500011 ScaDFX=  1.000000  1.000000  1.000000  1.000000
 FoFCou: FMM=F IPFlag=           0 FMFlag=      100000 FMFlg1=           0
         NFxFlg=           0 DoJE=T BraDBF=F KetDBF=T FulRan=T
         wScrn=  0.000000 ICntrl=       500 IOpCl=  0 I1Cent=   200000004 NGrid=           0
         NMat0=    1 NMatS0=      1 NMatT0=    0 NMatD0=    1 NMtDS0=    0 NMtDT0=    0
 Petite list used in FoFCou.
 Requested convergence on RMS density matrix=1.00D-08 within 128 cycles.
 Requested convergence on MAX density matrix=1.00D-06.
 Requested convergence on             energy=1.00D-06.
 No special actions if energy rises.
 Inv3:  Mode=1 IEnd=    11524800.
 Iteration    1 A*A^-1 deviation from unit magnitude is 7.11D-15 for    222.
 Iteration    1 A*A^-1 deviation from orthogonality  is 3.62D-15 for   1477    243.
 Iteration    1 A^-1*A deviation from unit magnitude is 5.77D-15 for   1959.
 Iteration    1 A^-1*A deviation from orthogonality  is 1.20D-14 for   1761   1148.
 Error on total polarization charges =  0.05800
 SCF Done:  E(RM052X) =  -648.620817182     A.U. after   13 cycles
            NFock= 13  Conv=0.62D-08     -V/T= 2.0038
 SMD-CDS (non-electrostatic) energy       (kcal/mol) =       6.49
 (included in total energy above)
 D1PCM: PCM CHGder 1st derivatives, ID1Alg=3 FixD1E=F DoIter=F DoCFld=F I1PDM=0.
 Calling FoFJK, ICntrl=      2127 FMM=F ISym2X=0 I1Cent= 0 IOpClX= 0 NMat=1 NMatS=1 NMatT=0.
 ***** Axes restored to original set *****
 -------------------------------------------------------------------
 Center     Atomic                   Forces (Hartrees/Bohr)
 Number     Number              X              Y              Z
 -------------------------------------------------------------------
      1        7          -0.000894758    0.002408854    0.002318139
      2        6          -0.000226402   -0.000428314    0.000090235
      3        6          -0.001095881   -0.002827019   -0.007821230
      4        8           0.000628297    0.001504712    0.002100105
      5        6           0.001173347    0.000750368    0.003885514
      6        7          -0.001450018   -0.003341429    0.000694379
      7        6           0.002233383    0.000868489   -0.002058727
      8        6          -0.000165020   -0.000526461   -0.000668538
      9        6          -0.001523488    0.000711588    0.001009202
     10        8           0.000704634   -0.000845353    0.000839978
     11        6          -0.000213671    0.000608615   -0.000306058
     12        8          -0.000261911    0.000616774   -0.000299508
     13        6           0.000739483   -0.000144137    0.000027570
     14        1           0.000475652   -0.001409976    0.000591030
     15        1           0.000006578    0.000039031    0.000014024
     16        1           0.000077111    0.000120468   -0.000022650
     17        1           0.000150683    0.000015645   -0.000167468
     18        1           0.000225560    0.000325682   -0.000564379
     19        1          -0.000826566    0.001559108    0.000241792
     20        1           0.000009583    0.000053948    0.000242054
     21        1          -0.000092915   -0.000144258   -0.000211692
     22        1          -0.000032569    0.000051339    0.000019304
     23        1           0.000369598    0.000043158   -0.000111628
     24        1           0.000215623   -0.000020439    0.000166467
     25        1          -0.000094204    0.000019825   -0.000028615
     26        1          -0.000015930   -0.000028161   -0.000003036
     27        1          -0.000116198    0.000017942    0.000023736
 -------------------------------------------------------------------
 Cartesian Forces:  Max     0.007821230 RMS     0.001339008

 GradGradGradGradGradGradGradGradGradGradGradGradGradGradGradGradGradGrad
 Berny optimization.
 Using GEDIIS/GDIIS optimizer.
 FormGI is forming the generalized inverse of G from B-inverse, IUseBI=4.
 Internal  Forces:  Max     0.002726950 RMS     0.000589667
 Search for a local minimum.
 Step number   4 out of a maximum of  135
 All quantities printed in internal units (Hartrees-Bohrs-Radians)
 Mixed Optimization -- En-DIIS/RFO-DIIS
 Swapping is turned off.
 Update second derivatives using D2CorX and points    2    3    4
 DE= -1.32D-04 DEPred=-3.53D-04 R= 3.74D-01
 Trust test= 3.74D-01 RLast= 1.96D-01 DXMaxT set to 8.49D-01
 ITU=  0  1  1  0
     Eigenvalues ---    0.00349   0.00370   0.00488   0.00673   0.00754
     Eigenvalues ---    0.00805   0.00832   0.00886   0.01442   0.01453
     Eigenvalues ---    0.01646   0.02344   0.02383   0.02969   0.03992
     Eigenvalues ---    0.04651   0.05060   0.05316   0.05538   0.05657
     Eigenvalues ---    0.05664   0.05803   0.06839   0.07386   0.07635
     Eigenvalues ---    0.09171   0.12934   0.15532   0.16000   0.16000
     Eigenvalues ---    0.16000   0.16000   0.16000   0.16000   0.16000
     Eigenvalues ---    0.16041   0.16225   0.16281   0.17632   0.17876
     Eigenvalues ---    0.20604   0.21959   0.22010   0.24459   0.24982
     Eigenvalues ---    0.25000   0.25469   0.25568   0.26715   0.29493
     Eigenvalues ---    0.29879   0.31803   0.32167   0.34401   0.34797
     Eigenvalues ---    0.34806   0.34807   0.34810   0.34812   0.34814
     Eigenvalues ---    0.34817   0.34818   0.34819   0.34820   0.34853
     Eigenvalues ---    0.35633   0.36364   0.36877   0.53346   0.53974
     Eigenvalues ---    0.55341   0.57421   0.97778   0.98500   1.01138
 En-DIIS/RFO-DIIS/Sim-DIIS IScMMF=       -3 using points:     4    3
 RFO step:  Lambda=-4.65307406D-04.
 DidBck=F Rises=F RFO-DIIS coefs:    1.11761   -0.11761
 Iteration  1 RMS(Cart)=  0.03112308 RMS(Int)=  0.00059843
 Iteration  2 RMS(Cart)=  0.00115408 RMS(Int)=  0.00009473
 Iteration  3 RMS(Cart)=  0.00000085 RMS(Int)=  0.00009473
 Variable       Old X    -DE/DX   Delta X   Delta X   Delta X     New X
                                 (Linear)    (Quad)   (Total)
    R1        2.74948   0.00010  -0.00011  -0.00002  -0.00013   2.74935
    R2        2.51048   0.00111  -0.00076  -0.00066  -0.00141   2.50907
    R3        1.90779  -0.00156  -0.00007  -0.00241  -0.00248   1.90531
    R4        2.05705   0.00001   0.00004   0.00014   0.00019   2.05724
    R5        2.05049   0.00000   0.00006   0.00021   0.00027   2.05076
    R6        2.05699   0.00005   0.00005   0.00024   0.00029   2.05728
    R7        2.33886  -0.00093   0.00028  -0.00013   0.00015   2.33901
    R8        2.87887  -0.00023  -0.00052  -0.00186  -0.00238   2.87649
    R9        2.74039  -0.00024   0.00021   0.00034   0.00055   2.74093
   R10        2.88826   0.00051  -0.00100  -0.00161  -0.00261   2.88564
   R11        2.06043  -0.00005   0.00017   0.00039   0.00057   2.06100
   R12        2.50011   0.00273  -0.00066   0.00136   0.00071   2.50082
   R13        1.91617  -0.00158   0.00001  -0.00224  -0.00223   1.91394
   R14        2.92267  -0.00176   0.00159   0.00068   0.00227   2.92494
   R15        2.32808  -0.00086   0.00003  -0.00069  -0.00067   2.32741
   R16        2.05737   0.00002   0.00018   0.00050   0.00069   2.05806
   R17        2.05733  -0.00007   0.00007   0.00007   0.00013   2.05746
   R18        2.05985  -0.00005   0.00002  -0.00002   0.00001   2.05986
   R19        2.81172   0.00102  -0.00076  -0.00004  -0.00080   2.81092
   R20        2.28808  -0.00061  -0.00028  -0.00116  -0.00145   2.28663
   R21        2.86682   0.00049  -0.00093  -0.00142  -0.00235   2.86446
   R22        2.06633   0.00012   0.00024   0.00082   0.00106   2.06739
   R23        2.06638   0.00011   0.00024   0.00079   0.00103   2.06741
   R24        2.05878   0.00001   0.00007   0.00023   0.00030   2.05908
   R25        2.05730  -0.00003   0.00007   0.00014   0.00021   2.05751
   R26        2.05875   0.00001   0.00007   0.00022   0.00030   2.05905
    A1        2.12160  -0.00023   0.00107   0.00211   0.00318   2.12478
    A2        2.08577   0.00023   0.00006   0.00089   0.00095   2.08671
    A3        2.07582   0.00000  -0.00112  -0.00300  -0.00413   2.07169
    A4        1.92917   0.00004  -0.00015  -0.00025  -0.00039   1.92878
    A5        1.88970  -0.00016   0.00020  -0.00001   0.00018   1.88988
    A6        1.93031  -0.00027   0.00003  -0.00103  -0.00100   1.92931
    A7        1.90644   0.00006  -0.00003   0.00016   0.00013   1.90657
    A8        1.90173   0.00014   0.00001   0.00068   0.00069   1.90242
    A9        1.90623   0.00019  -0.00006   0.00047   0.00041   1.90664
   A10        2.14388  -0.00031   0.00105   0.00320   0.00364   2.14752
   A11        2.01533   0.00106  -0.00089   0.00222   0.00072   2.01606
   A12        2.12194  -0.00063  -0.00039  -0.00138  -0.00238   2.11956
   A13        1.88049   0.00005  -0.00029  -0.00215  -0.00245   1.87804
   A14        1.94411  -0.00113  -0.00137  -0.00886  -0.01023   1.93388
   A15        1.88850   0.00081  -0.00068   0.00445   0.00378   1.89227
   A16        1.94711   0.00047   0.00088   0.00162   0.00246   1.94957
   A17        1.88702  -0.00024   0.00131   0.00386   0.00516   1.89218
   A18        1.91466   0.00007   0.00019   0.00148   0.00165   1.91631
   A19        2.13867  -0.00033   0.00114   0.00195   0.00308   2.14176
   A20        2.07407  -0.00054  -0.00046  -0.00334  -0.00381   2.07026
   A21        2.07035   0.00087  -0.00069   0.00131   0.00061   2.07096
   A22        1.98564   0.00051  -0.00035   0.00096   0.00057   1.98621
   A23        2.18797   0.00062   0.00026   0.00156   0.00178   2.18975
   A24        2.10954  -0.00113   0.00010  -0.00239  -0.00233   2.10721
   A25        1.93218  -0.00040  -0.00145  -0.00549  -0.00694   1.92523
   A26        1.90372   0.00039   0.00011   0.00191   0.00201   1.90573
   A27        1.92187   0.00002   0.00053   0.00139   0.00192   1.92378
   A28        1.89401   0.00003   0.00046   0.00145   0.00191   1.89592
   A29        1.90535   0.00013   0.00020   0.00071   0.00091   1.90626
   A30        1.90633  -0.00016   0.00018   0.00009   0.00026   1.90659
   A31        2.02404   0.00054  -0.00024   0.00101   0.00075   2.02480
   A32        2.08120  -0.00063  -0.00054  -0.00276  -0.00332   2.07788
   A33        2.17793   0.00009   0.00078   0.00179   0.00256   2.18049
   A34        1.97304  -0.00007   0.00063   0.00123   0.00186   1.97490
   A35        1.86285   0.00029  -0.00038   0.00116   0.00077   1.86363
   A36        1.86394   0.00012  -0.00030   0.00006  -0.00024   1.86370
   A37        1.95845  -0.00024   0.00075   0.00060   0.00134   1.95980
   A38        1.95901  -0.00014   0.00073   0.00057   0.00131   1.96032
   A39        1.83765   0.00009  -0.00166  -0.00396  -0.00563   1.83202
   A40        1.93680  -0.00013  -0.00007  -0.00083  -0.00090   1.93590
   A41        1.91763   0.00009   0.00075   0.00241   0.00316   1.92080
   A42        1.93719  -0.00015  -0.00006  -0.00088  -0.00095   1.93624
   A43        1.89077   0.00004  -0.00021  -0.00022  -0.00043   1.89034
   A44        1.88932   0.00010  -0.00022  -0.00036  -0.00058   1.88874
   A45        1.89081   0.00006  -0.00022  -0.00013  -0.00035   1.89046
    D1        1.05320   0.00001   0.00085   0.00253   0.00339   1.05659
    D2        3.14075   0.00001   0.00085   0.00257   0.00343  -3.13901
    D3       -1.05446  -0.00001   0.00091   0.00253   0.00345  -1.05101
    D4       -2.08591   0.00002  -0.00023   0.00001  -0.00022  -2.08613
    D5        0.00164   0.00002  -0.00023   0.00005  -0.00018   0.00145
    D6        2.08961  -0.00001  -0.00017   0.00001  -0.00017   2.08945
    D7        0.02234  -0.00131   0.00374  -0.04199  -0.03829  -0.01595
    D8        3.09635   0.00081  -0.00547   0.02496   0.01954   3.11589
    D9       -3.12172  -0.00131   0.00482  -0.03948  -0.03471   3.12676
   D10       -0.04771   0.00080  -0.00438   0.02747   0.02313  -0.02458
   D11        2.98592  -0.00123   0.00008  -0.06669  -0.06659   2.91933
   D12       -1.15636  -0.00132   0.00012  -0.07170  -0.07154  -1.22791
   D13        0.94954  -0.00140  -0.00095  -0.07242  -0.07334   0.87620
   D14       -0.22233   0.00087  -0.00900  -0.00047  -0.00951  -0.23184
   D15        1.91857   0.00078  -0.00897  -0.00548  -0.01446   1.90411
   D16       -2.25871   0.00070  -0.01004  -0.00620  -0.01626  -2.27497
   D17       -2.75438  -0.00065  -0.00346  -0.01642  -0.01989  -2.77426
   D18        0.37230  -0.00073  -0.00459  -0.02291  -0.02750   0.34480
   D19        1.38975   0.00043  -0.00212  -0.00495  -0.00706   1.38269
   D20       -1.76677   0.00035  -0.00325  -0.01143  -0.01467  -1.78143
   D21       -0.71704   0.00021  -0.00372  -0.01031  -0.01404  -0.73108
   D22        2.40963   0.00013  -0.00485  -0.01679  -0.02165   2.38798
   D23        1.12655   0.00026   0.00151   0.01714   0.01864   1.14519
   D24       -3.07378   0.00029   0.00125   0.01677   0.01802  -3.05576
   D25       -0.98206   0.00034   0.00185   0.01891   0.02077  -0.96129
   D26       -3.05448  -0.00013   0.00080   0.00940   0.01020  -3.04428
   D27       -0.97162  -0.00010   0.00054   0.00904   0.00958  -0.96204
   D28        1.12010  -0.00004   0.00115   0.01118   0.01233   1.13242
   D29       -0.96394  -0.00008   0.00311   0.01625   0.01936  -0.94458
   D30        1.11892  -0.00005   0.00285   0.01589   0.01873   1.13766
   D31       -3.07254   0.00001   0.00345   0.01803   0.02148  -3.05106
   D32       -3.13712  -0.00025   0.00102  -0.00799  -0.00699   3.13908
   D33       -0.00374   0.00043  -0.00187   0.00905   0.00718   0.00345
   D34        0.01937  -0.00016   0.00215  -0.00148   0.00066   0.02003
   D35       -3.13044   0.00052  -0.00074   0.01555   0.01483  -3.11561
   D36       -3.13427   0.00030  -0.00063   0.00740   0.00678  -3.12750
   D37        0.00322   0.00046  -0.00120   0.01828   0.01706   0.02028
   D38        0.01512  -0.00036   0.00212  -0.00881  -0.00667   0.00845
   D39       -3.13057  -0.00020   0.00155   0.00207   0.00362  -3.12696
   D40        3.13801   0.00009  -0.00041   0.00560   0.00520  -3.13997
   D41       -0.98374  -0.00005   0.00068   0.00798   0.00866  -0.97507
   D42        0.97510   0.00023  -0.00153   0.00403   0.00251   0.97761
   D43        0.00078  -0.00008   0.00020  -0.00594  -0.00575  -0.00497
   D44        2.16221  -0.00022   0.00128  -0.00356  -0.00229   2.15992
   D45       -2.16214   0.00006  -0.00093  -0.00751  -0.00844  -2.17058
   D46        1.05019   0.00002  -0.00020  -0.00018  -0.00038   1.04981
   D47        3.14080   0.00005  -0.00002   0.00058   0.00056   3.14136
   D48       -1.05148   0.00008   0.00016   0.00142   0.00158  -1.04990
   D49       -1.05776  -0.00013  -0.00071  -0.00304  -0.00375  -1.06151
   D50        1.03285  -0.00011  -0.00052  -0.00229  -0.00281   1.03004
   D51        3.12375  -0.00007  -0.00035  -0.00144  -0.00179   3.12196
   D52       -3.12320   0.00002   0.00041   0.00123   0.00164  -3.12157
   D53       -1.03259   0.00005   0.00059   0.00198   0.00258  -1.03002
   D54        1.05831   0.00009   0.00077   0.00283   0.00360   1.06191
         Item               Value     Threshold  Converged?
 Maximum Force            0.002727     0.000450     NO 
 RMS     Force            0.000590     0.000300     NO 
 Maximum Displacement     0.155671     0.001800     NO 
 RMS     Displacement     0.031378     0.001200     NO 
 Predicted change in Energy=-2.387105D-04
 GradGradGradGradGradGradGradGradGradGradGradGradGradGradGradGradGradGrad

                          Input orientation:                          
 ---------------------------------------------------------------------
 Center     Atomic      Atomic             Coordinates (Angstroms)
 Number     Number       Type             X           Y           Z
 ---------------------------------------------------------------------
      1          7           0       -3.508621    1.206107    0.819691
      2          6           0       -4.575333    0.378014    1.361074
      3          6           0       -2.310869    0.706746    0.538751
      4          8           0       -2.012430   -0.479253    0.729441
      5          6           0       -1.312655    1.691313   -0.053873
      6          7           0       -0.003438    1.068579   -0.009944
      7          6           0        1.121378    1.764026   -0.059683
      8          6           0       -1.708512    2.073773   -1.478232
      9          6           0        2.398415    0.891875    0.005553
     10          8           0        1.200225    2.990258   -0.143416
     11          6           0        3.691898    1.625602   -0.027918
     12          8           0        2.285702   -0.311060    0.072027
     13          6           0        4.898280    0.710127    0.037079
     14          1           0       -3.676756    2.185650    0.650007
     15          1           0       -4.278678   -0.048982    2.317534
     16          1           0       -5.451424    1.002190    1.504462
     17          1           0       -4.818859   -0.429460    0.672691
     18          1           0       -1.291869    2.581811    0.575460
     19          1           0        0.051855    0.061439    0.081725
     20          1           0       -2.647224    2.625943   -1.474302
     21          1           0       -0.934004    2.707585   -1.906976
     22          1           0       -1.820833    1.179412   -2.091151
     23          1           0        3.684177    2.238082   -0.934385
     24          1           0        3.669676    2.342839    0.797898
     25          1           0        4.908468    0.019549   -0.805695
     26          1           0        5.814618    1.297488    0.009064
     27          1           0        4.894315    0.125447    0.956517
 ---------------------------------------------------------------------
                    Distance matrix (angstroms):
                    1          2          3          4          5
     1  N    0.000000
     2  C    1.454892   0.000000
     3  C    1.327742   2.431477   0.000000
     4  O    2.255476   2.775309   1.237748   0.000000
     5  C    2.412635   3.791029   1.522171   2.411352   0.000000
     6  N    3.604652   4.822738   2.399214   2.641690   1.450440
     7  C    4.745678   6.032586   3.640917   3.933925   2.435125
     8  C    3.045273   4.376748   2.509944   3.388824   1.527017
     9  C    5.971150   7.122826   4.742987   4.675421   3.796666
    10  O    5.126792   6.514936   4.243531   4.808382   2.830166
    11  C    7.262362   8.475429   6.099067   6.127264   5.005052
    12  O    6.036139   7.015003   4.730985   4.351370   4.119893
    13  C    8.457805   9.571447   7.226583   7.046411   6.288617
    14  H    1.008249   2.140235   2.016230   3.142928   2.515709
    15  H    2.100422   1.088644   2.758164   2.800545   4.177259
    16  H    2.070018   1.085214   3.298935   3.823873   4.475791
    17  H    2.100812   1.088664   2.756614   2.807444   4.161615
    18  H    2.620343   4.031755   2.134379   3.148496   1.090632
    19  H    3.812066   4.811218   2.491537   2.230057   2.129967
    20  H    2.832020   4.100018   2.801576   3.860269   2.161533
    21  H    4.039530   5.419071   3.446837   4.274298   2.147132
    22  H    3.364869   4.488582   2.716603   3.277745   2.161201
    23  H    7.475165   8.772029   6.360479   6.527140   5.103193
    24  H    7.267778   8.494580   6.205713   6.344701   5.096432
    25  H    8.654316   9.734776   7.375540   7.106636   6.485553
    26  H    9.358859  10.517816   8.164133   8.058438   7.138422
    27  H    8.473245   9.481651   7.240657   6.936884   6.480686
                    6          7          8          9         10
     6  N    0.000000
     7  C    1.323378   0.000000
     8  C    2.464460   3.180645   0.000000
     9  C    2.408394   1.547813   4.523864   0.000000
    10  O    2.271447   1.231615   3.329028   2.420963   0.000000
    11  C    3.737125   2.574441   5.609697   1.487472   2.843249
    12  O    2.674001   2.383060   4.903516   1.210031   3.481864
    13  C    4.915031   3.922378   6.914144   2.506661   4.348239
    14  H    3.895722   4.868625   2.901018   6.244748   5.006182
    15  H    4.994375   6.172419   5.051702   7.128397   6.731392
    16  H    5.654944   6.799166   4.904503   7.992426   7.135289
    17  H    5.089046   6.374493   4.535075   7.367499   6.970644
    18  H    2.071865   2.626012   2.156234   4.098643   2.625670
    19  H    1.012814   2.015608   3.095456   2.490336   3.153954
    20  H    3.399901   4.116601   1.089076   5.536734   4.087401
    21  H    2.674140   2.920169   1.088761   4.249657   2.782981
    22  H    2.765255   3.622878   1.090031   4.720265   4.024877
    23  H    3.977541   2.749140   5.422532   2.085411   2.713193
    24  H    3.970909   2.750327   5.846202   2.085476   2.720921
    25  H    5.085322   4.235774   6.961075   2.778389   4.797374
    26  H    5.822588   4.716872   7.707927   3.440200   4.917453
    27  H    5.080505   4.237057   7.302144   2.778716   4.802426
                   11         12         13         14         15
    11  C    0.000000
    12  O    2.395419   0.000000
    13  C    1.515808   2.805282   0.000000
    14  H    7.420937   6.489878   8.722619   0.000000
    15  H    8.475580   6.942771   9.486478   2.852462   0.000000
    16  H    9.291780   7.977444  10.457288   2.297851   1.772394
    17  H    8.783343   7.130890   9.804358   2.853719   1.772588
    18  H    5.110415   4.628300   6.489299   2.418715   4.344758
    19  H    3.963401   2.264712   4.889849   4.328713   4.874889
    20  H    6.578539   5.945660   7.930274   2.401350   4.918830
    21  H    5.108866   4.836855   6.464110   3.785930   6.052437
    22  H    5.903069   4.874882   7.063715   3.459901   5.194849
    23  H    1.094017   3.076803   2.180008   7.529700   8.900151
    24  H    1.094027   3.079846   2.180381   7.349602   8.438391
    25  H    2.159719   2.785426   1.089619   8.973134   9.703757
    26  H    2.148247   3.878742   1.088785   9.554361  10.441103
    27  H    2.159950   2.788857   1.089602   8.820524   9.275052
                   16         17         18         19         20
    16  H    0.000000
    17  H    1.772457   0.000000
    18  H    4.545343   4.638627   0.000000
    19  H    5.761533   4.930930   2.898558   0.000000
    20  H    4.401494   4.319845   2.457734   4.035210   0.000000
    21  H    5.912137   5.620305   2.511249   3.453829   1.768896
    22  H    5.112830   4.383543   3.058977   3.078671   1.776478
    23  H    9.535964   9.055390   5.211412   4.354770   6.366206
    24  H    9.246137   8.930652   4.972275   4.336626   6.719097
    25  H   10.659726   9.849270   6.849595   4.937202   8.020524
    26  H   11.368690  10.793219   7.243787   5.894280   8.692981
    27  H   10.397270   9.733151   6.666919   4.921258   8.308800
                   21         22         23         24         25
    21  H    0.000000
    22  H    1.776429   0.000000
    23  H    4.742780   5.723987   0.000000
    24  H    5.351939   6.312358   1.735508   0.000000
    25  H    6.524786   6.948466   2.537191   3.082822   0.000000
    26  H    7.155660   7.919909   2.512686   2.513124   1.765805
    27  H    6.988299   7.449318   3.082721   2.538055   1.765448
                   26         27
    26  H    0.000000
    27  H    1.765872   0.000000
 Stoichiometry    C8H14N2O3
 Framework group  C1[X(C8H14N2O3)]
 Deg. of freedom    75
 Full point group                 C1      NOp   1
 Largest Abelian subgroup         C1      NOp   1
 Largest concise Abelian subgroup C1      NOp   1
                         Standard orientation:                         
 ---------------------------------------------------------------------
 Center     Atomic      Atomic             Coordinates (Angstroms)
 Number     Number       Type             X           Y           Z
 ---------------------------------------------------------------------
      1          7           0        3.536699    0.075064   -0.419539
      2          6           0        4.685816   -0.816240   -0.462166
      3          6           0        2.339802   -0.346553   -0.028931
      4          8           0        2.112683   -1.515979    0.307047
      5          6           0        1.247059    0.712862   -0.005334
      6          7           0       -0.023616    0.029201    0.142220
      7          6           0       -1.176756    0.581366   -0.199411
      8          6           0        1.485018    1.712365    1.124333
      9          6           0       -2.402631   -0.332214    0.042102
     10          8           0       -1.316044    1.709012   -0.674686
     11          6           0       -3.723532    0.233273   -0.342634
     12          8           0       -2.232360   -1.428669    0.524769
     13          6           0       -4.877316   -0.713193   -0.076817
     14          1           0        3.645186    1.039856   -0.691518
     15          1           0        4.502680   -1.642220   -1.147268
     16          1           0        5.544083   -0.248895   -0.807404
     17          1           0        4.895386   -1.216944    0.528140
     18          1           0        1.249616    1.231991   -0.964488
     19          1           0       -0.026343   -0.916833    0.503887
     20          1           0        2.395015    2.281572    0.939953
     21          1           0        0.645795    2.404295    1.172678
     22          1           0        1.575244    1.190065    2.076819
     23          1           0       -3.830765    1.179676    0.195600
     24          1           0       -3.651564    0.514673   -1.397399
     25          1           0       -4.940122   -0.962312    0.982081
     26          1           0       -5.816402   -0.250231   -0.375543
     27          1           0       -4.758390   -1.639452   -0.638186
 ---------------------------------------------------------------------
 Rotational constants (GHZ):           1.9868966           0.3315042           0.3008503
 Standard basis: 6-311+G(d,p) (5D, 7F)
 There are   383 symmetry adapted cartesian basis functions of A   symmetry.
 There are   370 symmetry adapted basis functions of A   symmetry.
   370 basis functions,   580 primitive gaussians,   383 cartesian basis functions
    50 alpha electrons       50 beta electrons
       nuclear repulsion energy       812.4667713844 Hartrees.
 NAtoms=   27 NActive=   27 NUniq=   27 SFac= 1.00D+00 NAtFMM=   60 NAOKFM=F Big=F
 Integral buffers will be    131072 words long.
 Raffenetti 2 integral format.
 Two-electron integral symmetry is turned on.
 ------------------------------------------------------------------------------
 Polarizable Continuum Model (PCM)
 =================================
 Model                : PCM.
 Atomic radii         : SMD-Coulomb.
 Polarization charges : Total charges.
 Charge compensation  : None.
 Solution method      : On-the-fly selection.
 Cavity type          : VdW (van der Waals Surface) (Alpha=1.000).
 Cavity algorithm     : GePol (No added spheres)
                        Default sphere list used, NSphG=   27.
                        Lebedev-Laikov grids with approx.  5.0 points / Ang**2.
                        Smoothing algorithm: York/Karplus (Gamma=1.0000).
                        Polarization charges: spherical gaussians, with
                                              point-specific exponents (IZeta= 3).
                        Self-potential: point-specific (ISelfS= 7).
                        Self-field    : sphere-specific E.n sum rule (ISelfD= 2).
 1st derivatives      : Analytical E(r).r(x)/FMM algorithm (CHGder, D1EAlg=3).
                        Cavity 1st derivative terms included.
 Solvent              : Water, Eps=  78.355300 Eps(inf)=   1.777849
 ------------------------------------------------------------------------------
 ------------------------------------------------------------------------------
 Atomic radii for non-electrostatic terms: SMD-CDS.
 ------------------------------------------------------------------------------
 Nuclear repulsion after PCM non-electrostatic terms =      812.4770871361 Hartrees.
 One-electron integrals computed using PRISM.
 NBasis=   370 RedAO= T EigKep=  5.00D-06  NBF=   370
 NBsUse=   370 1.00D-06 EigRej= -1.00D+00 NBFU=   370
 Initial guess from the checkpoint file:  "2KT_3D.chk"
 B after Tr=     0.000000    0.000000   -0.000000
         Rot=    0.999997    0.002636   -0.000224   -0.000027 Ang=   0.30 deg.
 ExpMin= 4.38D-02 ExpMax= 8.59D+03 ExpMxC= 1.30D+03 IAcc=3 IRadAn=         5 AccDes= 0.00D+00
 Harris functional with IExCor= 1009 and IRadAn=       5 diagonalized for initial guess.
 HarFok:  IExCor= 1009 AccDes= 0.00D+00 IRadAn=         5 IDoV= 1 UseB2=F ITyADJ=14
 ICtDFT=  3500011 ScaDFX=  1.000000  1.000000  1.000000  1.000000
 FoFCou: FMM=F IPFlag=           0 FMFlag=      100000 FMFlg1=           0
         NFxFlg=           0 DoJE=T BraDBF=F KetDBF=T FulRan=T
         wScrn=  0.000000 ICntrl=       500 IOpCl=  0 I1Cent=   200000004 NGrid=           0
         NMat0=    1 NMatS0=      1 NMatT0=    0 NMatD0=    1 NMtDS0=    0 NMtDT0=    0
 Petite list used in FoFCou.
 Requested convergence on RMS density matrix=1.00D-08 within 128 cycles.
 Requested convergence on MAX density matrix=1.00D-06.
 Requested convergence on             energy=1.00D-06.
 No special actions if energy rises.
 Inv3:  Mode=1 IEnd=    11630883.
 Iteration    1 A*A^-1 deviation from unit magnitude is 5.33D-15 for    818.
 Iteration    1 A*A^-1 deviation from orthogonality  is 3.12D-15 for   1944   1715.
 Iteration    1 A^-1*A deviation from unit magnitude is 4.66D-15 for   1960.
 Iteration    1 A^-1*A deviation from orthogonality  is 2.89D-15 for   1768   1148.
 Error on total polarization charges =  0.05803
 SCF Done:  E(RM052X) =  -648.621000327     A.U. after   13 cycles
            NFock= 13  Conv=0.38D-08     -V/T= 2.0038
 SMD-CDS (non-electrostatic) energy       (kcal/mol) =       6.47
 (included in total energy above)
 D1PCM: PCM CHGder 1st derivatives, ID1Alg=3 FixD1E=F DoIter=F DoCFld=F I1PDM=0.
 Calling FoFJK, ICntrl=      2127 FMM=F ISym2X=0 I1Cent= 0 IOpClX= 0 NMat=1 NMatS=1 NMatT=0.
 ***** Axes restored to original set *****
 -------------------------------------------------------------------
 Center     Atomic                   Forces (Hartrees/Bohr)
 Number     Number              X              Y              Z
 -------------------------------------------------------------------
      1        7          -0.001530605    0.001083959    0.000331116
      2        6          -0.000226934   -0.000637348   -0.000100925
      3        6           0.002048982   -0.001161699    0.001107656
      4        8          -0.000996421    0.000492500   -0.000798553
      5        6           0.000764202   -0.000124372    0.001760070
      6        7          -0.001164590   -0.001985224    0.000200257
      7        6           0.002750351    0.000701758    0.000236082
      8        6          -0.000065038    0.000517362   -0.001221045
      9        6          -0.002744972    0.001553697   -0.000995778
     10        8           0.000143616   -0.000355243    0.000001194
     11        6          -0.000470949    0.002165056    0.000134551
     12        8           0.000336326   -0.000731734    0.000336791
     13        6           0.001037038   -0.000910076    0.000082377
     14        1          -0.000065321   -0.000351238   -0.000060000
     15        1           0.000042708    0.000059300   -0.000055604
     16        1           0.000188494    0.000058286   -0.000088570
     17        1           0.000063104    0.000058410    0.000042862
     18        1           0.000398157   -0.000125061   -0.000622499
     19        1          -0.000613041    0.000453754   -0.000002758
     20        1           0.000061134   -0.000039448   -0.000131682
     21        1          -0.000281631   -0.000025903   -0.000305219
     22        1           0.000070087    0.000051518    0.000051744
     23        1           0.000241692   -0.000488185   -0.000074104
     24        1           0.000322007   -0.000417417    0.000181554
     25        1          -0.000036943    0.000035077    0.000038958
     26        1          -0.000232965    0.000100437   -0.000003290
     27        1          -0.000038486    0.000021831   -0.000045184
 -------------------------------------------------------------------
 Cartesian Forces:  Max     0.002750351 RMS     0.000805622

 GradGradGradGradGradGradGradGradGradGradGradGradGradGradGradGradGradGrad
 Berny optimization.
 Using GEDIIS/GDIIS optimizer.
 FormGI is forming the generalized inverse of G from B-inverse, IUseBI=4.
 Internal  Forces:  Max     0.002068632 RMS     0.000461140
 Search for a local minimum.
 Step number   5 out of a maximum of  135
 All quantities printed in internal units (Hartrees-Bohrs-Radians)
 Mixed Optimization -- En-DIIS/RFO-DIIS
 Swapping is turned off.
 Update second derivatives using D2CorX and points    2    3    4    5
 DE= -1.83D-04 DEPred=-2.39D-04 R= 7.67D-01
 TightC=F SS=  1.41D+00  RLast= 1.59D-01 DXNew= 1.4270D+00 4.7662D-01
 Trust test= 7.67D-01 RLast= 1.59D-01 DXMaxT set to 8.49D-01
 ITU=  1  0  1  1  0
     Eigenvalues ---    0.00305   0.00370   0.00418   0.00673   0.00770
     Eigenvalues ---    0.00818   0.00832   0.00886   0.01441   0.01455
     Eigenvalues ---    0.01661   0.02333   0.02383   0.03947   0.04202
     Eigenvalues ---    0.04845   0.05117   0.05319   0.05553   0.05639
     Eigenvalues ---    0.05696   0.05800   0.06757   0.07393   0.07638
     Eigenvalues ---    0.09490   0.12959   0.15697   0.15999   0.16000
     Eigenvalues ---    0.16000   0.16000   0.16000   0.16000   0.16025
     Eigenvalues ---    0.16039   0.16107   0.16498   0.17555   0.17781
     Eigenvalues ---    0.21842   0.21966   0.22128   0.24775   0.24999
     Eigenvalues ---    0.25002   0.25215   0.25613   0.27896   0.29594
     Eigenvalues ---    0.30423   0.32108   0.33446   0.34085   0.34793
     Eigenvalues ---    0.34807   0.34807   0.34811   0.34813   0.34813
     Eigenvalues ---    0.34817   0.34818   0.34819   0.34824   0.35032
     Eigenvalues ---    0.35368   0.36419   0.37149   0.52680   0.53391
     Eigenvalues ---    0.55603   0.58020   0.97885   0.98415   1.01464
 En-DIIS/RFO-DIIS/Sim-DIIS IScMMF=       -3 using points:     5    4    3
 RFO step:  Lambda=-1.21863567D-04.
 DidBck=F Rises=F RFO-DIIS coefs:    1.11189    0.12142   -0.23331
 Iteration  1 RMS(Cart)=  0.01179643 RMS(Int)=  0.00010317
 Iteration  2 RMS(Cart)=  0.00013952 RMS(Int)=  0.00001151
 Iteration  3 RMS(Cart)=  0.00000002 RMS(Int)=  0.00001151
 Variable       Old X    -DE/DX   Delta X   Delta X   Delta X     New X
                                 (Linear)    (Quad)   (Total)
    R1        2.74935   0.00013  -0.00024   0.00062   0.00038   2.74972
    R2        2.50907   0.00151  -0.00166   0.00371   0.00204   2.51111
    R3        1.90531  -0.00032  -0.00041  -0.00101  -0.00143   1.90389
    R4        2.05724  -0.00005   0.00011  -0.00017  -0.00006   2.05718
    R5        2.05076  -0.00013   0.00014  -0.00028  -0.00014   2.05062
    R6        2.05728  -0.00009   0.00013  -0.00024  -0.00011   2.05717
    R7        2.33901  -0.00084   0.00056  -0.00152  -0.00096   2.33804
    R8        2.87649   0.00071  -0.00129   0.00206   0.00076   2.87725
    R9        2.74093  -0.00048   0.00048  -0.00111  -0.00063   2.74031
   R10        2.88564   0.00168  -0.00228   0.00578   0.00351   2.88915
   R11        2.06100  -0.00045   0.00041  -0.00122  -0.00081   2.06019
   R12        2.50082   0.00199  -0.00122   0.00440   0.00318   2.50400
   R13        1.91394  -0.00048  -0.00022  -0.00146  -0.00168   1.91226
   R14        2.92494  -0.00207   0.00341  -0.00845  -0.00504   2.91990
   R15        2.32741  -0.00035  -0.00002  -0.00060  -0.00062   2.32679
   R16        2.05806  -0.00007   0.00044  -0.00044  -0.00001   2.05805
   R17        2.05746  -0.00010   0.00015  -0.00031  -0.00016   2.05730
   R18        2.05986  -0.00007   0.00005  -0.00020  -0.00015   2.05971
   R19        2.81092   0.00095  -0.00161   0.00406   0.00245   2.81336
   R20        2.28663   0.00072  -0.00072   0.00093   0.00021   2.28683
   R21        2.86446   0.00104  -0.00212   0.00447   0.00235   2.86682
   R22        2.06739  -0.00021   0.00060  -0.00090  -0.00029   2.06710
   R23        2.06741  -0.00015   0.00059  -0.00078  -0.00019   2.06723
   R24        2.05908  -0.00005   0.00018  -0.00023  -0.00005   2.05903
   R25        2.05751  -0.00014   0.00016  -0.00038  -0.00022   2.05728
   R26        2.05905  -0.00005   0.00018  -0.00024  -0.00006   2.05899
    A1        2.12478  -0.00061   0.00248  -0.00419  -0.00172   2.12306
    A2        2.08671   0.00023   0.00022   0.00067   0.00088   2.08759
    A3        2.07169   0.00038  -0.00269   0.00351   0.00081   2.07250
    A4        1.92878  -0.00007  -0.00034  -0.00008  -0.00042   1.92836
    A5        1.88988  -0.00024   0.00041  -0.00142  -0.00101   1.88887
    A6        1.92931   0.00002  -0.00005  -0.00012  -0.00018   1.92913
    A7        1.90657   0.00012  -0.00004   0.00048   0.00044   1.90701
    A8        1.90242   0.00005   0.00010   0.00046   0.00056   1.90298
    A9        1.90664   0.00011  -0.00008   0.00070   0.00062   1.90726
   A10        2.14752  -0.00094   0.00249  -0.00495  -0.00244   2.14509
   A11        2.01606   0.00060  -0.00169   0.00378   0.00210   2.01816
   A12        2.11956   0.00033  -0.00104   0.00115   0.00013   2.11970
   A13        1.87804   0.00029  -0.00085   0.00167   0.00083   1.87888
   A14        1.93388  -0.00038  -0.00386   0.00056  -0.00330   1.93058
   A15        1.89227   0.00034  -0.00092   0.00575   0.00483   1.89710
   A16        1.94957  -0.00004   0.00202  -0.00293  -0.00094   1.94862
   A17        1.89218  -0.00021   0.00317  -0.00391  -0.00075   1.89142
   A18        1.91631   0.00002   0.00057  -0.00093  -0.00041   1.91590
   A19        2.14176  -0.00108   0.00260  -0.00585  -0.00326   2.13850
   A20        2.07026  -0.00002  -0.00134   0.00011  -0.00124   2.06902
   A21        2.07096   0.00110  -0.00130   0.00581   0.00450   2.07546
   A22        1.98621   0.00036  -0.00063   0.00249   0.00186   1.98807
   A23        2.18975   0.00001   0.00071  -0.00080  -0.00009   2.18966
   A24        2.10721  -0.00038  -0.00006  -0.00171  -0.00177   2.10544
   A25        1.92523   0.00011  -0.00366   0.00288  -0.00078   1.92445
   A26        1.90573   0.00059   0.00043   0.00268   0.00311   1.90885
   A27        1.92378  -0.00019   0.00126  -0.00210  -0.00084   1.92294
   A28        1.89592  -0.00028   0.00112  -0.00139  -0.00027   1.89565
   A29        1.90626  -0.00003   0.00051  -0.00089  -0.00038   1.90588
   A30        1.90659  -0.00021   0.00038  -0.00122  -0.00084   1.90575
   A31        2.02480   0.00022  -0.00040   0.00173   0.00130   2.02610
   A32        2.07788   0.00036  -0.00144   0.00182   0.00034   2.07822
   A33        2.18049  -0.00057   0.00183  -0.00346  -0.00166   2.17883
   A34        1.97490  -0.00027   0.00147  -0.00297  -0.00151   1.97339
   A35        1.86363   0.00020  -0.00068   0.00206   0.00136   1.86499
   A36        1.86370   0.00029  -0.00062   0.00245   0.00182   1.86552
   A37        1.95980  -0.00018   0.00164  -0.00356  -0.00193   1.95787
   A38        1.96032  -0.00024   0.00160  -0.00358  -0.00198   1.95834
   A39        1.83202   0.00028  -0.00393   0.00676   0.00282   1.83484
   A40        1.93590   0.00001  -0.00023  -0.00004  -0.00028   1.93562
   A41        1.92080  -0.00029   0.00184  -0.00276  -0.00091   1.91988
   A42        1.93624   0.00002  -0.00023  -0.00000  -0.00024   1.93601
   A43        1.89034   0.00013  -0.00046   0.00101   0.00054   1.89088
   A44        1.88874   0.00001  -0.00049   0.00084   0.00034   1.88908
   A45        1.89046   0.00013  -0.00047   0.00107   0.00060   1.89107
    D1        1.05659   0.00012   0.00207   0.00310   0.00517   1.06176
    D2       -3.13901   0.00007   0.00207   0.00276   0.00484  -3.13417
    D3       -1.05101   0.00008   0.00220   0.00266   0.00486  -1.04615
    D4       -2.08613  -0.00003  -0.00049  -0.00137  -0.00186  -2.08800
    D5        0.00145  -0.00007  -0.00048  -0.00171  -0.00219  -0.00074
    D6        2.08945  -0.00007  -0.00036  -0.00181  -0.00217   2.08728
    D7       -0.01595   0.00020   0.00313  -0.00224   0.00091  -0.01504
    D8        3.11589  -0.00042  -0.00866  -0.00406  -0.01273   3.10316
    D9        3.12676   0.00034   0.00568   0.00219   0.00788   3.13464
   D10       -0.02458  -0.00027  -0.00610   0.00037  -0.00576  -0.03034
   D11        2.91933   0.00024  -0.00728  -0.00575  -0.01306   2.90627
   D12       -1.22791   0.00014  -0.00777  -0.00793  -0.01571  -1.24362
   D13        0.87620   0.00015  -0.01009  -0.00507  -0.01517   0.86103
   D14       -0.23184  -0.00037  -0.01893  -0.00757  -0.02650  -0.25834
   D15        1.90411  -0.00047  -0.01942  -0.00976  -0.02915   1.87496
   D16       -2.27497  -0.00046  -0.02173  -0.00689  -0.02861  -2.30358
   D17       -2.77426  -0.00029  -0.00909   0.00064  -0.00845  -2.78272
   D18        0.34480  -0.00026  -0.01219   0.00397  -0.00822   0.33658
   D19        1.38269   0.00001  -0.00499   0.00065  -0.00432   1.37837
   D20       -1.78143   0.00005  -0.00809   0.00398  -0.00409  -1.78552
   D21       -0.73108   0.00016  -0.00895   0.00625  -0.00272  -0.73380
   D22        2.38798   0.00019  -0.01205   0.00958  -0.00248   2.38550
   D23        1.14519  -0.00004   0.00507  -0.00137   0.00371   1.14890
   D24       -3.05576   0.00006   0.00449   0.00034   0.00483  -3.05093
   D25       -0.96129   0.00005   0.00599  -0.00077   0.00523  -0.95606
   D26       -3.04428   0.00004   0.00273  -0.00083   0.00190  -3.04238
   D27       -0.96204   0.00014   0.00215   0.00088   0.00303  -0.95901
   D28        1.13242   0.00013   0.00365  -0.00023   0.00342   1.13585
   D29       -0.94458  -0.00024   0.00833  -0.00827   0.00006  -0.94451
   D30        1.13766  -0.00014   0.00775  -0.00656   0.00119   1.13885
   D31       -3.05106  -0.00015   0.00925  -0.00766   0.00159  -3.04947
   D32        3.13908   0.00009   0.00124   0.00021   0.00146   3.14054
   D33        0.00345   0.00002  -0.00290   0.00554   0.00264   0.00608
   D34        0.02003   0.00007   0.00434  -0.00305   0.00129   0.02132
   D35       -3.11561  -0.00000   0.00020   0.00228   0.00248  -3.11313
   D36       -3.12750   0.00008  -0.00049   0.01070   0.01022  -3.11728
   D37        0.02028  -0.00013  -0.00047  -0.00529  -0.00576   0.01452
   D38        0.00845   0.00015   0.00345   0.00565   0.00911   0.01755
   D39       -3.12696  -0.00007   0.00347  -0.01034  -0.00687  -3.13383
   D40       -3.13997  -0.00011  -0.00022  -0.00776  -0.00797   3.13524
   D41       -0.97507  -0.00038   0.00231  -0.01273  -0.01042  -0.98550
   D42        0.97761   0.00016  -0.00275  -0.00305  -0.00579   0.97182
   D43       -0.00497   0.00012  -0.00025   0.00931   0.00905   0.00408
   D44        2.15992  -0.00015   0.00228   0.00433   0.00660   2.16652
   D45       -2.17058   0.00039  -0.00278   0.01402   0.01124  -2.15935
   D46        1.04981  -0.00001  -0.00044   0.00044  -0.00000   1.04981
   D47        3.14136  -0.00003   0.00002  -0.00012  -0.00010   3.14126
   D48       -1.04990  -0.00004   0.00049  -0.00058  -0.00009  -1.04999
   D49       -1.06151   0.00007  -0.00182   0.00257   0.00075  -1.06076
   D50        1.03004   0.00005  -0.00135   0.00201   0.00066   1.03070
   D51        3.12196   0.00003  -0.00089   0.00155   0.00066   3.12263
   D52       -3.12157  -0.00001   0.00099  -0.00119  -0.00020  -3.12176
   D53       -1.03002  -0.00003   0.00146  -0.00175  -0.00029  -1.03031
   D54        1.06191  -0.00004   0.00192  -0.00221  -0.00029   1.06162
         Item               Value     Threshold  Converged?
 Maximum Force            0.002069     0.000450     NO 
 RMS     Force            0.000461     0.000300     NO 
 Maximum Displacement     0.060909     0.001800     NO 
 RMS     Displacement     0.011789     0.001200     NO 
 Predicted change in Energy=-6.108420D-05
 GradGradGradGradGradGradGradGradGradGradGradGradGradGradGradGradGradGrad

                          Input orientation:                          
 ---------------------------------------------------------------------
 Center     Atomic      Atomic             Coordinates (Angstroms)
 Number     Number       Type             X           Y           Z
 ---------------------------------------------------------------------
      1          7           0       -3.506428    1.211374    0.834898
      2          6           0       -4.577503    0.379060    1.361528
      3          6           0       -2.313269    0.707119    0.538468
      4          8           0       -2.028252   -0.485706    0.701857
      5          6           0       -1.311238    1.689624   -0.052170
      6          7           0       -0.003866    1.063755   -0.008816
      7          6           0        1.121812    1.760375   -0.066771
      8          6           0       -1.707383    2.070052   -1.478982
      9          6           0        2.398962    0.893015   -0.003183
     10          8           0        1.199567    2.986000   -0.155464
     11          6           0        3.692539    1.629392   -0.032171
     12          8           0        2.289722   -0.309607    0.075594
     13          6           0        4.899646    0.713540    0.042364
     14          1           0       -3.668728    2.193920    0.682239
     15          1           0       -4.282110   -0.067410    2.309413
     16          1           0       -5.449231    1.006210    1.517428
     17          1           0       -4.826172   -0.413559    0.657981
     18          1           0       -1.286001    2.581790    0.573887
     19          1           0        0.047710    0.057837    0.088447
     20          1           0       -2.643649    2.626351   -1.474869
     21          1           0       -0.931810    2.698331   -1.913682
     22          1           0       -1.825628    1.173845   -2.087936
     23          1           0        3.691076    2.237428   -0.941471
     24          1           0        3.667498    2.348258    0.792016
     25          1           0        4.914220    0.020395   -0.798200
     26          1           0        5.815419    1.301694    0.017266
     27          1           0        4.890596    0.132019    0.963728
 ---------------------------------------------------------------------
                    Distance matrix (angstroms):
                    1          2          3          4          5
     1  N    0.000000
     2  C    1.455091   0.000000
     3  C    1.328823   2.431421   0.000000
     4  O    2.254502   2.771582   1.237239   0.000000
     5  C    2.415465   3.792705   1.522576   2.411375   0.000000
     6  N    3.605771   4.823361   2.400011   2.646512   1.450108
     7  C    4.747106   6.035749   3.643549   3.944436   2.434122
     8  C    3.054166   4.377846   2.508941   3.375042   1.528872
     9  C    5.973053   7.127247   4.746901   4.690222   3.795072
    10  O    5.126061   6.517050   4.244391   4.817318   2.827614
    11  C    7.263034   8.479347   6.102945   6.143280   5.004179
    12  O    6.040305   7.020447   4.736614   4.366706   4.120700
    13  C    8.458016   9.574363   7.229959   7.061792   6.287827
    14  H    1.007493   2.140333   2.017056   3.141964   2.520204
    15  H    2.100278   1.088613   2.759071   2.799836   4.182143
    16  H    2.069402   1.085141   3.298799   3.820218   4.478134
    17  H    2.100817   1.088605   2.754067   2.799194   4.157217
    18  H    2.622301   4.038116   2.137973   3.158614   1.090204
    19  H    3.810477   4.807964   2.489640   2.231890   2.128202
    20  H    2.842811   4.103080   2.801094   3.847304   2.162602
    21  H    4.048999   5.421910   3.447666   4.263957   2.150973
    22  H    3.371862   4.483671   2.711757   3.252401   2.162168
    23  H    7.484139   8.782183   6.370575   6.544211   5.110195
    24  H    7.263577   8.496007   6.207028   6.362472   5.092569
    25  H    8.659835   9.740938   7.382064   7.120690   6.488391
    26  H    9.358072  10.520035   8.167052   8.073825   7.137545
    27  H    8.467090   9.479672   7.239286   6.951304   6.474638
                    6          7          8          9         10
     6  N    0.000000
     7  C    1.325062   0.000000
     8  C    2.464952   3.177198   0.000000
     9  C    2.408894   1.545144   4.519455   0.000000
    10  O    2.272615   1.231287   3.322803   2.417090   0.000000
    11  C    3.739505   2.574294   5.607727   1.488769   2.840861
    12  O    2.674659   2.380990   4.904726   1.210140   3.478915
    13  C    4.916270   3.921710   6.914294   2.507530   4.346700
    14  H    3.896927   4.868084   2.921145   6.243318   5.002942
    15  H    4.995707   6.179759   5.054690   7.134931   6.741491
    16  H    5.655505   6.801254   4.910362   7.994949   7.136151
    17  H    5.087407   6.374149   4.523469   7.372031   6.966220
    18  H    2.070711   2.623496   2.157246   4.094377   2.621714
    19  H    1.011925   2.019016   3.096158   2.496859   3.156010
    20  H    3.399922   4.112341   1.089072   5.531567   4.079275
    21  H    2.676086   2.916883   1.088675   4.243020   2.777922
    22  H    2.766528   3.621675   1.089951   4.719346   4.021214
    23  H    3.987474   2.755685   5.427734   2.087436   2.717680
    24  H    3.971170   2.750207   5.841590   2.087883   2.719396
    25  H    5.089135   4.236139   6.964925   2.778496   4.796516
    26  H    5.824206   4.716715   7.708547   3.440874   4.916586
    27  H    5.076390   4.232872   7.297680   2.778897   4.798072
                   11         12         13         14         15
    11  C    0.000000
    12  O    2.395668   0.000000
    13  C    1.517053   2.803505   0.000000
    14  H    7.417366   6.491440   8.718830   0.000000
    15  H    8.482757   6.945328   9.489681   2.852638   0.000000
    16  H    9.293093   7.981332  10.457568   2.297475   1.772589
    17  H    8.787400   7.140444   9.810244   2.852931   1.772865
    18  H    5.104922   4.625394   6.483449   2.416520   4.359699
    19  H    3.971034   2.271959   4.896259   4.327511   4.867825
    20  H    6.574388   5.946591   7.928565   2.427118   4.925616
    21  H    5.105616   4.835617   6.463080   3.805780   6.058743
    22  H    5.906256   4.880329   7.069610   3.480149   5.187648
    23  H    1.093863   3.079870   2.179635   7.536912   8.913597
    24  H    1.093929   3.078275   2.180017   7.338670   8.445958
    25  H    2.160596   2.785750   1.089592   8.976797   9.707597
    26  H    2.148593   3.876884   1.088667   9.549204  10.444543
    27  H    2.160852   2.783588   1.089568   8.808672   9.273035
                   16         17         18         19         20
    16  H    0.000000
    17  H    1.772737   0.000000
    18  H    4.550297   4.638103   0.000000
    19  H    5.758278   4.929636   2.895648   0.000000
    20  H    4.410215   4.307379   2.458169   4.035422   0.000000
    21  H    5.919704   5.609222   2.515360   3.455458   1.768652
    22  H    5.114416   4.366140   3.059218   3.080830   1.776171
    23  H    9.545015   9.062533   5.214038   4.368691   6.369028
    24  H    9.243488   8.932415   4.963796   4.340956   6.711682
    25  H   10.664665   9.858195   6.847343   4.946762   8.023108
    26  H   11.367944  10.797966   7.237309   5.900738   8.691203
    27  H   10.391479   9.736875   6.656103   4.921907   8.302608
                   21         22         23         24         25
    21  H    0.000000
    22  H    1.775763   0.000000
    23  H    4.746441   5.734075   0.000000
    24  H    5.347615   6.312512   1.737187   0.000000
    25  H    6.526232   6.958406   2.536108   3.082539   0.000000
    26  H    7.155715   7.926779   2.511495   2.511792   1.766033
    27  H    6.983256   7.450217   3.082430   2.537157   1.765618
                   26         27
    26  H    0.000000
    27  H    1.766133   0.000000
 Stoichiometry    C8H14N2O3
 Framework group  C1[X(C8H14N2O3)]
 Deg. of freedom    75
 Full point group                 C1      NOp   1
 Largest Abelian subgroup         C1      NOp   1
 Largest concise Abelian subgroup C1      NOp   1
                         Standard orientation:                         
 ---------------------------------------------------------------------
 Center     Atomic      Atomic             Coordinates (Angstroms)
 Number     Number       Type             X           Y           Z
 ---------------------------------------------------------------------
      1          7           0        3.535199    0.074777   -0.437985
      2          6           0        4.687857   -0.812839   -0.466348
      3          6           0        2.341803   -0.345149   -0.031487
      4          8           0        2.126279   -1.508146    0.331483
      5          6           0        1.244995    0.710638   -0.007728
      6          7           0       -0.023400    0.023737    0.141113
      7          6           0       -1.178558    0.580271   -0.193057
      8          6           0        1.482618    1.708222    1.126207
      9          6           0       -2.404426   -0.329231    0.046785
     10          8           0       -1.317830    1.710114   -0.662231
     11          6           0       -3.725408    0.236418   -0.342419
     12          8           0       -2.235821   -1.431550    0.516791
     13          6           0       -4.878456   -0.715534   -0.086065
     14          1           0        3.638904    1.034702   -0.725790
     15          1           0        4.506384   -1.651695   -1.136023
     16          1           0        5.542569   -0.247814   -0.823761
     17          1           0        4.900664   -1.194230    0.530806
     18          1           0        1.242419    1.233449   -0.964393
     19          1           0       -0.021427   -0.923768    0.496390
     20          1           0        2.389714    2.281538    0.940291
     21          1           0        0.641632    2.397222    1.183100
     22          1           0        1.579517    1.181958    2.075760
     23          1           0       -3.839420    1.178881    0.200997
     24          1           0       -3.651062    0.521489   -1.395931
     25          1           0       -4.945116   -0.969548    0.971405
     26          1           0       -5.816985   -0.253235   -0.387129
     27          1           0       -4.753964   -1.638670   -0.651291
 ---------------------------------------------------------------------
 Rotational constants (GHZ):           1.9891250           0.3310618           0.3006178
 Standard basis: 6-311+G(d,p) (5D, 7F)
 There are   383 symmetry adapted cartesian basis functions of A   symmetry.
 There are   370 symmetry adapted basis functions of A   symmetry.
   370 basis functions,   580 primitive gaussians,   383 cartesian basis functions
    50 alpha electrons       50 beta electrons
       nuclear repulsion energy       812.3352810534 Hartrees.
 NAtoms=   27 NActive=   27 NUniq=   27 SFac= 1.00D+00 NAtFMM=   60 NAOKFM=F Big=F
 Integral buffers will be    131072 words long.
 Raffenetti 2 integral format.
 Two-electron integral symmetry is turned on.
 ------------------------------------------------------------------------------
 Polarizable Continuum Model (PCM)
 =================================
 Model                : PCM.
 Atomic radii         : SMD-Coulomb.
 Polarization charges : Total charges.
 Charge compensation  : None.
 Solution method      : On-the-fly selection.
 Cavity type          : VdW (van der Waals Surface) (Alpha=1.000).
 Cavity algorithm     : GePol (No added spheres)
                        Default sphere list used, NSphG=   27.
                        Lebedev-Laikov grids with approx.  5.0 points / Ang**2.
                        Smoothing algorithm: York/Karplus (Gamma=1.0000).
                        Polarization charges: spherical gaussians, with
                                              point-specific exponents (IZeta= 3).
                        Self-potential: point-specific (ISelfS= 7).
                        Self-field    : sphere-specific E.n sum rule (ISelfD= 2).
 1st derivatives      : Analytical E(r).r(x)/FMM algorithm (CHGder, D1EAlg=3).
                        Cavity 1st derivative terms included.
 Solvent              : Water, Eps=  78.355300 Eps(inf)=   1.777849
 ------------------------------------------------------------------------------
 ------------------------------------------------------------------------------
 Atomic radii for non-electrostatic terms: SMD-CDS.
 ------------------------------------------------------------------------------
 Nuclear repulsion after PCM non-electrostatic terms =      812.3455852966 Hartrees.
 One-electron integrals computed using PRISM.
 NBasis=   370 RedAO= T EigKep=  4.96D-06  NBF=   370
 NBsUse=   370 1.00D-06 EigRej= -1.00D+00 NBFU=   370
 Initial guess from the checkpoint file:  "2KT_3D.chk"
 B after Tr=    -0.000000   -0.000000    0.000000
         Rot=    1.000000   -0.000435   -0.000024   -0.000271 Ang=  -0.06 deg.
 ExpMin= 4.38D-02 ExpMax= 8.59D+03 ExpMxC= 1.30D+03 IAcc=3 IRadAn=         5 AccDes= 0.00D+00
 Harris functional with IExCor= 1009 and IRadAn=       5 diagonalized for initial guess.
 HarFok:  IExCor= 1009 AccDes= 0.00D+00 IRadAn=         5 IDoV= 1 UseB2=F ITyADJ=14
 ICtDFT=  3500011 ScaDFX=  1.000000  1.000000  1.000000  1.000000
 FoFCou: FMM=F IPFlag=           0 FMFlag=      100000 FMFlg1=           0
         NFxFlg=           0 DoJE=T BraDBF=F KetDBF=T FulRan=T
         wScrn=  0.000000 ICntrl=       500 IOpCl=  0 I1Cent=   200000004 NGrid=           0
         NMat0=    1 NMatS0=      1 NMatT0=    0 NMatD0=    1 NMtDS0=    0 NMtDT0=    0
 Petite list used in FoFCou.
 Requested convergence on RMS density matrix=1.00D-08 within 128 cycles.
 Requested convergence on MAX density matrix=1.00D-06.
 Requested convergence on             energy=1.00D-06.
 No special actions if energy rises.
 Inv3:  Mode=1 IEnd=    11630883.
 Iteration    1 A*A^-1 deviation from unit magnitude is 4.88D-15 for    216.
 Iteration    1 A*A^-1 deviation from orthogonality  is 4.32D-15 for   1809    216.
 Iteration    1 A^-1*A deviation from unit magnitude is 4.00D-15 for    216.
 Iteration    1 A^-1*A deviation from orthogonality  is 2.88D-15 for   1968   1732.
 Error on total polarization charges =  0.05802
 SCF Done:  E(RM052X) =  -648.621075149     A.U. after   12 cycles
            NFock= 12  Conv=0.45D-08     -V/T= 2.0038
 SMD-CDS (non-electrostatic) energy       (kcal/mol) =       6.47
 (included in total energy above)
 D1PCM: PCM CHGder 1st derivatives, ID1Alg=3 FixD1E=F DoIter=F DoCFld=F I1PDM=0.
 Calling FoFJK, ICntrl=      2127 FMM=F ISym2X=0 I1Cent= 0 IOpClX= 0 NMat=1 NMatS=1 NMatT=0.
 ***** Axes restored to original set *****
 -------------------------------------------------------------------
 Center     Atomic                   Forces (Hartrees/Bohr)
 Number     Number              X              Y              Z
 -------------------------------------------------------------------
      1        7          -0.000335458    0.000382089    0.000514223
      2        6          -0.000082332   -0.000302278   -0.000130568
      3        6           0.000516065   -0.000663322   -0.000184906
      4        8          -0.000123715    0.000167118   -0.000263874
      5        6           0.000480060    0.000144510    0.001177141
      6        7          -0.000267572   -0.000416292    0.000210551
      7        6           0.001336672    0.000139851   -0.000202787
      8        6          -0.000284904    0.000200461   -0.000607593
      9        6          -0.001558726    0.001040243    0.001066680
     10        8          -0.000199788   -0.000130743   -0.000066987
     11        6          -0.000213616    0.001263156   -0.000529174
     12        8           0.000299770   -0.000733524   -0.000357155
     13        6           0.000443198   -0.000568334    0.000033300
     14        1          -0.000112044    0.000324301   -0.000116023
     15        1          -0.000015456    0.000016306   -0.000060552
     16        1           0.000087166    0.000007967   -0.000026908
     17        1           0.000037221    0.000028362    0.000031910
     18        1           0.000085416    0.000000175   -0.000414017
     19        1          -0.000153239   -0.000253566   -0.000104678
     20        1           0.000018336   -0.000060464   -0.000063153
     21        1          -0.000103619   -0.000020670   -0.000016843
     22        1           0.000067099   -0.000028048    0.000029799
     23        1           0.000195795   -0.000280044   -0.000000766
     24        1           0.000039291   -0.000402307    0.000084929
     25        1          -0.000002658    0.000026516    0.000042623
     26        1          -0.000143048    0.000094891   -0.000002289
     27        1          -0.000009916    0.000023643   -0.000042885
 -------------------------------------------------------------------
 Cartesian Forces:  Max     0.001558726 RMS     0.000422160

 GradGradGradGradGradGradGradGradGradGradGradGradGradGradGradGradGradGrad
 Berny optimization.
 Using GEDIIS/GDIIS optimizer.
 FormGI is forming the generalized inverse of G from B-inverse, IUseBI=4.
 Internal  Forces:  Max     0.001033563 RMS     0.000216338
 Search for a local minimum.
 Step number   6 out of a maximum of  135
 All quantities printed in internal units (Hartrees-Bohrs-Radians)
 Mixed Optimization -- En-DIIS/RFO-DIIS
 Swapping is turned off.
 Update second derivatives using D2CorX and points    3    4    5    6
 DE= -7.48D-05 DEPred=-6.11D-05 R= 1.22D+00
 TightC=F SS=  1.41D+00  RLast= 6.78D-02 DXNew= 1.4270D+00 2.0331D-01
 Trust test= 1.22D+00 RLast= 6.78D-02 DXMaxT set to 8.49D-01
 ITU=  1  1  0  1  1  0
     Eigenvalues ---    0.00197   0.00370   0.00385   0.00673   0.00815
     Eigenvalues ---    0.00832   0.00885   0.01235   0.01422   0.01460
     Eigenvalues ---    0.01719   0.02318   0.02409   0.03917   0.04242
     Eigenvalues ---    0.04887   0.05023   0.05288   0.05554   0.05646
     Eigenvalues ---    0.05702   0.05778   0.06563   0.07397   0.07646
     Eigenvalues ---    0.09002   0.12977   0.15569   0.15803   0.15999
     Eigenvalues ---    0.16000   0.16000   0.16000   0.16000   0.16035
     Eigenvalues ---    0.16049   0.16111   0.16376   0.17200   0.17672
     Eigenvalues ---    0.19909   0.21957   0.21986   0.24486   0.24992
     Eigenvalues ---    0.25063   0.25452   0.26590   0.26759   0.29500
     Eigenvalues ---    0.29990   0.32113   0.32518   0.33751   0.34802
     Eigenvalues ---    0.34806   0.34810   0.34811   0.34812   0.34815
     Eigenvalues ---    0.34816   0.34818   0.34821   0.34850   0.34886
     Eigenvalues ---    0.35122   0.36386   0.36838   0.53307   0.54294
     Eigenvalues ---    0.56464   0.56963   0.97710   0.98405   1.01868
 En-DIIS/RFO-DIIS/Sim-DIIS IScMMF=       -3 using points:     6    5    4    3
 RFO step:  Lambda=-1.58316868D-04.
 DidBck=F Rises=F RFO-DIIS coefs:    1.90842   -0.32428   -0.14225   -0.44189
 Iteration  1 RMS(Cart)=  0.03819572 RMS(Int)=  0.00096859
 Iteration  2 RMS(Cart)=  0.00117388 RMS(Int)=  0.00006033
 Iteration  3 RMS(Cart)=  0.00000142 RMS(Int)=  0.00006033
 Iteration  4 RMS(Cart)=  0.00000000 RMS(Int)=  0.00006033
 Variable       Old X    -DE/DX   Delta X   Delta X   Delta X     New X
                                 (Linear)    (Quad)   (Total)
    R1        2.74972   0.00005  -0.00017   0.00078   0.00061   2.75034
    R2        2.51111   0.00061  -0.00182   0.00480   0.00298   2.51409
    R3        1.90389   0.00035  -0.00300   0.00054  -0.00246   1.90142
    R4        2.05718  -0.00006   0.00022  -0.00039  -0.00017   2.05701
    R5        2.05062  -0.00007   0.00024  -0.00047  -0.00023   2.05039
    R6        2.05717  -0.00006   0.00025  -0.00044  -0.00020   2.05697
    R7        2.33804  -0.00023   0.00024  -0.00172  -0.00147   2.33657
    R8        2.87725  -0.00005  -0.00264   0.00162  -0.00102   2.87623
    R9        2.74031  -0.00012   0.00054  -0.00122  -0.00069   2.73962
   R10        2.88915   0.00072  -0.00210   0.00797   0.00587   2.89502
   R11        2.06019  -0.00024   0.00025  -0.00187  -0.00162   2.05857
   R12        2.50400   0.00041   0.00084   0.00420   0.00504   2.50905
   R13        1.91226   0.00023  -0.00277  -0.00019  -0.00296   1.90930
   R14        2.91990  -0.00103   0.00271  -0.01157  -0.00886   2.91104
   R15        2.32679  -0.00014  -0.00085  -0.00060  -0.00146   2.32534
   R16        2.05805  -0.00005   0.00108  -0.00075   0.00033   2.05837
   R17        2.05730  -0.00008   0.00018  -0.00058  -0.00040   2.05689
   R18        2.05971   0.00000  -0.00005  -0.00011  -0.00016   2.05955
   R19        2.81336   0.00035  -0.00112   0.00492   0.00380   2.81717
   R20        2.28683   0.00068  -0.00172   0.00198   0.00026   2.28709
   R21        2.86682   0.00049  -0.00275   0.00627   0.00352   2.87033
   R22        2.06710  -0.00015   0.00127  -0.00158  -0.00031   2.06679
   R23        2.06723  -0.00021   0.00133  -0.00174  -0.00041   2.06682
   R24        2.05903  -0.00005   0.00040  -0.00044  -0.00004   2.05899
   R25        2.05728  -0.00007   0.00017  -0.00057  -0.00040   2.05688
   R26        2.05899  -0.00005   0.00039  -0.00048  -0.00008   2.05890
    A1        2.12306  -0.00034   0.00432  -0.00634  -0.00212   2.12094
    A2        2.08759   0.00014   0.00157   0.00094   0.00240   2.08999
    A3        2.07250   0.00020  -0.00589   0.00533  -0.00066   2.07184
    A4        1.92836   0.00001  -0.00116   0.00022  -0.00094   1.92742
    A5        1.88887  -0.00009  -0.00008  -0.00169  -0.00177   1.88709
    A6        1.92913   0.00000  -0.00064   0.00003  -0.00061   1.92852
    A7        1.90701   0.00003   0.00038   0.00043   0.00081   1.90783
    A8        1.90298  -0.00000   0.00095   0.00018   0.00113   1.90410
    A9        1.90726   0.00005   0.00056   0.00084   0.00141   1.90866
   A10        2.14509   0.00002   0.00387  -0.00449  -0.00081   2.14428
   A11        2.01816  -0.00002  -0.00103   0.00314   0.00193   2.02009
   A12        2.11970  -0.00001  -0.00273   0.00124  -0.00167   2.11802
   A13        1.87888   0.00010  -0.00176   0.00199   0.00018   1.87906
   A14        1.93058  -0.00037  -0.01412  -0.00008  -0.01420   1.91637
   A15        1.89710   0.00024   0.00405   0.00746   0.01149   1.90858
   A16        1.94862   0.00013   0.00388  -0.00336   0.00041   1.94903
   A17        1.89142  -0.00008   0.00725  -0.00406   0.00313   1.89455
   A18        1.91590  -0.00001   0.00131  -0.00167  -0.00039   1.91551
   A19        2.13850  -0.00064   0.00312  -0.00915  -0.00605   2.13245
   A20        2.06902   0.00016  -0.00508   0.00210  -0.00300   2.06602
   A21        2.07546   0.00048   0.00186   0.00722   0.00905   2.08451
   A22        1.98807   0.00009   0.00071   0.00264   0.00334   1.99141
   A23        2.18966  -0.00027   0.00193  -0.00296  -0.00104   2.18861
   A24        2.10544   0.00018  -0.00260   0.00032  -0.00229   2.10315
   A25        1.92445   0.00009  -0.01023   0.00538  -0.00485   1.91961
   A26        1.90885   0.00011   0.00440   0.00186   0.00626   1.91511
   A27        1.92294  -0.00013   0.00234  -0.00349  -0.00117   1.92178
   A28        1.89565  -0.00006   0.00259  -0.00154   0.00107   1.89672
   A29        1.90588   0.00000   0.00095  -0.00099  -0.00005   1.90583
   A30        1.90575  -0.00001   0.00005  -0.00126  -0.00123   1.90452
   A31        2.02610   0.00001   0.00071   0.00158   0.00201   2.02811
   A32        2.07822   0.00041  -0.00366   0.00461   0.00066   2.07888
   A33        2.17883  -0.00041   0.00292  -0.00572  -0.00308   2.17574
   A34        1.97339  -0.00016   0.00210  -0.00480  -0.00272   1.97067
   A35        1.86499   0.00020   0.00024   0.00399   0.00421   1.86920
   A36        1.86552   0.00002   0.00039   0.00092   0.00129   1.86681
   A37        1.95787  -0.00015   0.00185  -0.00486  -0.00301   1.95486
   A38        1.95834  -0.00005   0.00172  -0.00477  -0.00305   1.95529
   A39        1.83484   0.00018  -0.00697   0.01117   0.00419   1.83903
   A40        1.93562   0.00004  -0.00103   0.00060  -0.00044   1.93519
   A41        1.91988  -0.00023   0.00384  -0.00518  -0.00134   1.91855
   A42        1.93601   0.00003  -0.00101   0.00046  -0.00055   1.93546
   A43        1.89088   0.00008  -0.00055   0.00148   0.00094   1.89182
   A44        1.88908  -0.00001  -0.00083   0.00127   0.00044   1.88952
   A45        1.89107   0.00009  -0.00047   0.00152   0.00105   1.89211
    D1        1.06176   0.00007   0.00987   0.00574   0.01563   1.07739
    D2       -3.13417   0.00005   0.00960   0.00536   0.01498  -3.11919
    D3       -1.04615   0.00006   0.00986   0.00536   0.01524  -1.03092
    D4       -2.08800  -0.00004  -0.00270  -0.00481  -0.00754  -2.09554
    D5       -0.00074  -0.00006  -0.00297  -0.00520  -0.00819  -0.00893
    D6        2.08728  -0.00005  -0.00271  -0.00520  -0.00793   2.07934
    D7       -0.01504  -0.00007  -0.00750  -0.00517  -0.01259  -0.02763
    D8        3.10316  -0.00017  -0.02069  -0.01088  -0.03157   3.07159
    D9        3.13464   0.00004   0.00501   0.00532   0.01033  -3.13821
   D10       -0.03034  -0.00006  -0.00818  -0.00039  -0.00865  -0.03898
   D11        2.90627  -0.00004  -0.05044  -0.01251  -0.06301   2.84325
   D12       -1.24362  -0.00004  -0.05563  -0.01541  -0.07100  -1.31462
   D13        0.86103  -0.00013  -0.06019  -0.01276  -0.07301   0.78802
   D14       -0.25834  -0.00014  -0.06346  -0.01821  -0.08167  -0.34001
   D15        1.87496  -0.00014  -0.06864  -0.02111  -0.08966   1.78530
   D16       -2.30358  -0.00023  -0.07320  -0.01846  -0.09167  -2.39524
   D17       -2.78272  -0.00021  -0.03230   0.00473  -0.02759  -2.81031
   D18        0.33658  -0.00016  -0.04079   0.01364  -0.02716   0.30942
   D19        1.37837   0.00010  -0.01600   0.00559  -0.01038   1.36799
   D20       -1.78552   0.00015  -0.02450   0.01449  -0.00995  -1.79547
   D21       -0.73380   0.00009  -0.02465   0.01246  -0.01223  -0.74602
   D22        2.38550   0.00014  -0.03314   0.02136  -0.01180   2.37370
   D23        1.14890  -0.00002   0.01992  -0.01258   0.00735   1.15625
   D24       -3.05093   0.00003   0.01960  -0.01002   0.00958  -3.04135
   D25       -0.95606   0.00000   0.02383  -0.01256   0.01128  -0.94479
   D26       -3.04238  -0.00006   0.01071  -0.01234  -0.00162  -3.04399
   D27       -0.95901  -0.00000   0.01039  -0.00978   0.00061  -0.95841
   D28        1.13585  -0.00003   0.01462  -0.01232   0.00231   1.13816
   D29       -0.94451  -0.00008   0.02304  -0.02072   0.00232  -0.94220
   D30        1.13885  -0.00003   0.02273  -0.01816   0.00454   1.14339
   D31       -3.04947  -0.00006   0.02695  -0.02070   0.00624  -3.04323
   D32        3.14054   0.00003   0.00107   0.00331   0.00438  -3.13827
   D33        0.00608  -0.00003  -0.00042   0.00287   0.00244   0.00852
   D34        0.02132  -0.00001   0.00964  -0.00557   0.00409   0.02541
   D35       -3.11313  -0.00007   0.00815  -0.00600   0.00215  -3.11098
   D36       -3.11728  -0.00018   0.01088  -0.02653  -0.01569  -3.13297
   D37        0.01452   0.00013   0.00023   0.02475   0.02503   0.03955
   D38        0.01755  -0.00012   0.01232  -0.02613  -0.01385   0.00370
   D39       -3.13383   0.00019   0.00168   0.02515   0.02687  -3.10696
   D40        3.13524   0.00019  -0.00573   0.03042   0.02466  -3.12328
   D41       -0.98550   0.00003  -0.00187   0.02400   0.02209  -0.96341
   D42        0.97182   0.00034  -0.00954   0.03893   0.02937   1.00119
   D43        0.00408  -0.00015   0.00561  -0.02425  -0.01862  -0.01454
   D44        2.16652  -0.00031   0.00947  -0.03067  -0.02119   2.14533
   D45       -2.15935  -0.00000   0.00179  -0.01574  -0.01391  -2.17326
   D46        1.04981   0.00007  -0.00098   0.00222   0.00124   1.05105
   D47        3.14126   0.00005   0.00017   0.00110   0.00126  -3.14066
   D48       -1.04999   0.00003   0.00143  -0.00008   0.00135  -1.04865
   D49       -1.06076   0.00004  -0.00416   0.00410  -0.00007  -1.06083
   D50        1.03070   0.00002  -0.00301   0.00297  -0.00005   1.03065
   D51        3.12263   0.00000  -0.00174   0.00179   0.00004   3.12266
   D52       -3.12176  -0.00006   0.00230  -0.00361  -0.00130  -3.12306
   D53       -1.03031  -0.00007   0.00345  -0.00474  -0.00128  -1.03159
   D54        1.06162  -0.00010   0.00472  -0.00592  -0.00119   1.06043
         Item               Value     Threshold  Converged?
 Maximum Force            0.001034     0.000450     NO 
 RMS     Force            0.000216     0.000300     YES
 Maximum Displacement     0.174220     0.001800     NO 
 RMS     Displacement     0.038183     0.001200     NO 
 Predicted change in Energy=-8.266590D-05
 GradGradGradGradGradGradGradGradGradGradGradGradGradGradGradGradGradGrad

                          Input orientation:                          
 ---------------------------------------------------------------------
 Center     Atomic      Atomic             Coordinates (Angstroms)
 Number     Number       Type             X           Y           Z
 ---------------------------------------------------------------------
      1          7           0       -3.497467    1.224227    0.873406
      2          6           0       -4.587805    0.388034    1.353174
      3          6           0       -2.323327    0.704262    0.525562
      4          8           0       -2.072348   -0.503362    0.612096
      5          6           0       -1.309637    1.684776   -0.046812
      6          7           0       -0.004840    1.056188    0.017566
      7          6           0        1.121385    1.755909   -0.052267
      8          6           0       -1.692831    2.046799   -1.485233
      9          6           0        2.399674    0.900244    0.030323
     10          8           0        1.194767    2.978857   -0.167074
     11          6           0        3.692302    1.640278   -0.032049
     12          8           0        2.298618   -0.303400    0.106494
     13          6           0        4.901963    0.723783    0.030085
     14          1           0       -3.635212    2.216018    0.774432
     15          1           0       -4.300212   -0.121863    2.270874
     16          1           0       -5.441865    1.027485    1.550531
     17          1           0       -4.857826   -0.353429    0.603405
     18          1           0       -1.291468    2.584624    0.566882
     19          1           0        0.039920    0.054068    0.138294
     20          1           0       -2.628777    2.603944   -1.492169
     21          1           0       -0.915080    2.666490   -1.927765
     22          1           0       -1.810177    1.141666   -2.080865
     23          1           0        3.677128    2.237299   -0.948300
     24          1           0        3.684576    2.365486    0.786621
     25          1           0        4.900695    0.022069   -0.803434
     26          1           0        5.816215    1.312484   -0.017966
     27          1           0        4.909131    0.152164    0.957589
 ---------------------------------------------------------------------
                    Distance matrix (angstroms):
                    1          2          3          4          5
     1  N    0.000000
     2  C    1.455415   0.000000
     3  C    1.330400   2.431625   0.000000
     4  O    2.254731   2.769712   1.236460   0.000000
     5  C    2.417749   3.793137   1.522034   2.409115   0.000000
     6  N    3.599881   4.820150   2.399436   2.657114   1.449745
     7  C    4.740607   6.036655   3.647724   3.968075   2.432069
     8  C    3.081642   4.380517   2.498646   3.323574   1.531977
     9  C    5.965906   7.130018   4.752937   4.723087   3.792153
    10  O    5.116482   6.516261   4.246235   4.838077   2.821550
    11  C    7.258494   8.488059   6.113498   6.183956   5.002159
    12  O    6.042881   7.032434   4.749040   4.404653   4.122603
    13  C    8.456481   9.587440   7.242286   7.105325   6.285968
    14  H    1.006191   2.141005   2.017024   3.140689   2.522888
    15  H    2.099827   1.088521   2.763452   2.803651   4.192750
    16  H    2.068306   1.085018   3.298532   3.818088   4.478710
    17  H    2.100589   1.088500   2.747445   2.789524   4.143273
    18  H    2.609803   4.038453   2.145275   3.185510   1.089348
    19  H    3.797733   4.796177   2.481465   2.235374   2.124800
    20  H    2.873010   4.104147   2.788069   3.793797   2.161957
    21  H    4.073746   5.426310   3.442720   4.223521   2.158106
    22  H    3.403157   4.480603   2.692231   3.166526   2.163996
    23  H    7.471261   8.776428   6.366156   6.557632   5.097625
    24  H    7.272672   8.524295   6.238808   6.434511   5.108830
    25  H    8.647896   9.737378   7.376864   7.134643   6.473430
    26  H    9.356656  10.534622   8.180312   8.119341   7.135629
    27  H    8.475099   9.508097   7.266355   7.020693   6.483116
                    6          7          8          9         10
     6  N    0.000000
     7  C    1.327731   0.000000
     8  C    2.467596   3.171406   0.000000
     9  C    2.409600   1.540456   4.512216   0.000000
    10  O    2.273720   1.230515   3.308247   2.410684   0.000000
    11  C    3.743325   2.573596   5.592554   1.490781   2.836848
    12  O    2.676249   2.377359   4.897826   1.210278   3.473692
    13  C    4.918066   3.919800   6.894771   2.508503   4.343677
    14  H    3.885570   4.849778   2.984555   6.221319   4.979664
    15  H    4.991534   6.190051   5.060619   7.138154   6.764085
    16  H    5.649075   6.795279   4.930530   7.988552   7.127615
    17  H    5.087406   6.374181   4.487839   7.387248   6.952097
    18  H    2.072022   2.625257   2.159056   4.092623   2.622113
    19  H    1.010358   2.025374   3.099877   2.509205   3.159320
    20  H    3.399984   4.105630   1.089245   5.523214   4.063979
    21  H    2.684385   2.914419   1.088462   4.235720   2.765694
    22  H    2.769470   3.617535   1.089869   4.715745   4.008436
    23  H    3.985575   2.750715   5.400097   2.092202   2.705982
    24  H    3.989674   2.765008   5.846314   2.090429   2.735856
    25  H    5.080130   4.225356   6.931015   2.778749   4.783456
    26  H    5.826803   4.715848   7.686212   3.441660   4.914958
    27  H    5.084094   4.235425   7.289919   2.777916   4.801203
                   11         12         13         14         15
    11  C    0.000000
    12  O    2.395712   0.000000
    13  C    1.518915   2.799705   0.000000
    14  H    7.394211   6.481046   8.698516   0.000000
    15  H    8.502287   6.947090   9.508747   2.854339   0.000000
    16  H    9.290484   7.985711  10.459387   2.297593   1.772926
    17  H    8.802464   7.173850   9.835780   2.850631   1.773417
    18  H    5.107688   4.630482   6.489181   2.381614   4.391036
    19  H    3.985595   2.287031   4.909143   4.311067   4.838966
    20  H    6.558708   5.940337   7.909761   2.510155   4.938037
    21  H    5.086730   4.825589   6.437801   3.860559   6.071458
    22  H    5.892669   4.873906   7.048657   3.554955   5.170532
    23  H    1.093700   3.077017   2.179034   7.512561   8.920015
    24  H    1.093713   3.083246   2.179349   7.321325   8.493925
    25  H    2.161908   2.775734   1.089568   8.953479   9.701998
    26  H    2.149105   3.872991   1.088455   9.527525  10.470828
    27  H    2.162068   2.783285   1.089524   8.791976   9.306546
                   16         17         18         19         20
    16  H    0.000000
    17  H    1.773435   0.000000
    18  H    4.540709   4.620866   0.000000
    19  H    5.743860   4.936629   2.891365   0.000000
    20  H    4.433589   4.255132   2.455293   4.035123   0.000000
    21  H    5.939417   5.574225   2.524210   3.464877   1.769298
    22  H    5.137045   4.327676   3.059698   3.087134   1.776211
    23  H    9.532253   9.053458   5.206088   4.379094   6.339926
    24  H    9.255579   8.966533   4.985712   4.364229   6.716262
    25  H   10.654603   9.866556   6.840127   4.951263   7.989580
    26  H   11.370390  10.821115   7.244276   5.913849   8.669431
    27  H   10.404849   9.786446   6.672101   4.938631   8.296541
                   21         22         23         24         25
    21  H    0.000000
    22  H    1.774747   0.000000
    23  H    4.715074   5.709084   0.000000
    24  H    5.349330   6.317636   1.739666   0.000000
    25  H    6.486935   6.922510   2.534828   3.082016   0.000000
    26  H    7.126780   7.902315   2.509282   2.509991   1.766439
    27  H    6.969113   7.440458   3.081888   2.535262   1.765842
                   26         27
    26  H    0.000000
    27  H    1.766593   0.000000
 Stoichiometry    C8H14N2O3
 Framework group  C1[X(C8H14N2O3)]
 Deg. of freedom    75
 Full point group                 C1      NOp   1
 Largest Abelian subgroup         C1      NOp   1
 Largest concise Abelian subgroup C1      NOp   1
                         Standard orientation:                         
 ---------------------------------------------------------------------
 Center     Atomic      Atomic             Coordinates (Angstroms)
 Number     Number       Type             X           Y           Z
 ---------------------------------------------------------------------
      1          7           0        3.526084    0.076688   -0.485868
      2          6           0        4.694286   -0.791352   -0.479405
      3          6           0        2.348525   -0.338450   -0.026540
      4          8           0        2.161856   -1.482354    0.404123
      5          6           0        1.241076    0.705476   -0.007459
      6          7           0       -0.021691    0.004839    0.120166
      7          6           0       -1.179837    0.571138   -0.197439
      8          6           0        1.466865    1.680411    1.152487
      9          6           0       -2.404236   -0.339345    0.014394
     10          8           0       -1.319102    1.714193   -0.631256
     11          6           0       -3.728936    0.246269   -0.338668
     12          8           0       -2.242056   -1.446164    0.476372
     13          6           0       -4.884327   -0.704469   -0.077380
     14          1           0        3.608707    1.022488   -0.819116
     15          1           0        4.519955   -1.667755   -1.101020
     16          1           0        5.533663   -0.230553   -0.877167
     17          1           0        4.923858   -1.113878    0.534550
     18          1           0        1.241632    1.249664   -0.951141
     19          1           0       -0.009294   -0.951917    0.444645
     20          1           0        2.371655    2.261686    0.979486
     21          1           0        0.622839    2.363558    1.227843
     22          1           0        1.566905    1.131899    2.088938
     23          1           0       -3.829266    1.177917    0.225377
     24          1           0       -3.674958    0.547511   -1.388691
     25          1           0       -4.931857   -0.977464    0.976363
     26          1           0       -5.824590   -0.229870   -0.351959
     27          1           0       -4.776096   -1.617443   -0.662040
 ---------------------------------------------------------------------
 Rotational constants (GHZ):           2.0004861           0.3300070           0.3004463
 Standard basis: 6-311+G(d,p) (5D, 7F)
 There are   383 symmetry adapted cartesian basis functions of A   symmetry.
 There are   370 symmetry adapted basis functions of A   symmetry.
   370 basis functions,   580 primitive gaussians,   383 cartesian basis functions
    50 alpha electrons       50 beta electrons
       nuclear repulsion energy       812.2641879234 Hartrees.
 NAtoms=   27 NActive=   27 NUniq=   27 SFac= 1.00D+00 NAtFMM=   60 NAOKFM=F Big=F
 Integral buffers will be    131072 words long.
 Raffenetti 2 integral format.
 Two-electron integral symmetry is turned on.
 ------------------------------------------------------------------------------
 Polarizable Continuum Model (PCM)
 =================================
 Model                : PCM.
 Atomic radii         : SMD-Coulomb.
 Polarization charges : Total charges.
 Charge compensation  : None.
 Solution method      : On-the-fly selection.
 Cavity type          : VdW (van der Waals Surface) (Alpha=1.000).
 Cavity algorithm     : GePol (No added spheres)
                        Default sphere list used, NSphG=   27.
                        Lebedev-Laikov grids with approx.  5.0 points / Ang**2.
                        Smoothing algorithm: York/Karplus (Gamma=1.0000).
                        Polarization charges: spherical gaussians, with
                                              point-specific exponents (IZeta= 3).
                        Self-potential: point-specific (ISelfS= 7).
                        Self-field    : sphere-specific E.n sum rule (ISelfD= 2).
 1st derivatives      : Analytical E(r).r(x)/FMM algorithm (CHGder, D1EAlg=3).
                        Cavity 1st derivative terms included.
 Solvent              : Water, Eps=  78.355300 Eps(inf)=   1.777849
 ------------------------------------------------------------------------------
 ------------------------------------------------------------------------------
 Atomic radii for non-electrostatic terms: SMD-CDS.
 ------------------------------------------------------------------------------
 Nuclear repulsion after PCM non-electrostatic terms =      812.2744642533 Hartrees.
 One-electron integrals computed using PRISM.
 NBasis=   370 RedAO= T EigKep=  4.89D-06  NBF=   370
 NBsUse=   370 1.00D-06 EigRej= -1.00D+00 NBFU=   370
 Initial guess from the checkpoint file:  "2KT_3D.chk"
 B after Tr=     0.000000    0.000000   -0.000000
         Rot=    0.999994   -0.003416   -0.000041   -0.000783 Ang=  -0.40 deg.
 ExpMin= 4.38D-02 ExpMax= 8.59D+03 ExpMxC= 1.30D+03 IAcc=3 IRadAn=         5 AccDes= 0.00D+00
 Harris functional with IExCor= 1009 and IRadAn=       5 diagonalized for initial guess.
 HarFok:  IExCor= 1009 AccDes= 0.00D+00 IRadAn=         5 IDoV= 1 UseB2=F ITyADJ=14
 ICtDFT=  3500011 ScaDFX=  1.000000  1.000000  1.000000  1.000000
 FoFCou: FMM=F IPFlag=           0 FMFlag=      100000 FMFlg1=           0
         NFxFlg=           0 DoJE=T BraDBF=F KetDBF=T FulRan=T
         wScrn=  0.000000 ICntrl=       500 IOpCl=  0 I1Cent=   200000004 NGrid=           0
         NMat0=    1 NMatS0=      1 NMatT0=    0 NMatD0=    1 NMtDS0=    0 NMtDT0=    0
 Petite list used in FoFCou.
 Requested convergence on RMS density matrix=1.00D-08 within 128 cycles.
 Requested convergence on MAX density matrix=1.00D-06.
 Requested convergence on             energy=1.00D-06.
 No special actions if energy rises.
 Inv3:  Mode=1 IEnd=    11630883.
 Iteration    1 A*A^-1 deviation from unit magnitude is 7.77D-15 for    233.
 Iteration    1 A*A^-1 deviation from orthogonality  is 3.39D-15 for    254    233.
 Iteration    1 A^-1*A deviation from unit magnitude is 5.55D-15 for    233.
 Iteration    1 A^-1*A deviation from orthogonality  is 1.70D-15 for   1842   1334.
 Error on total polarization charges =  0.05802
 SCF Done:  E(RM052X) =  -648.621068752     A.U. after   12 cycles
            NFock= 12  Conv=0.83D-08     -V/T= 2.0038
 SMD-CDS (non-electrostatic) energy       (kcal/mol) =       6.45
 (included in total energy above)
 D1PCM: PCM CHGder 1st derivatives, ID1Alg=3 FixD1E=F DoIter=F DoCFld=F I1PDM=0.
 Calling FoFJK, ICntrl=      2127 FMM=F ISym2X=0 I1Cent= 0 IOpClX= 0 NMat=1 NMatS=1 NMatT=0.
 ***** Axes restored to original set *****
 -------------------------------------------------------------------
 Center     Atomic                   Forces (Hartrees/Bohr)
 Number     Number              X              Y              Z
 -------------------------------------------------------------------
      1        7           0.001426587   -0.001377769    0.000352969
      2        6           0.000266156    0.000282544   -0.000066547
      3        6          -0.001507985    0.000823226   -0.000817428
      4        8           0.000666155   -0.000621161    0.000210107
      5        6          -0.000143758    0.000010655   -0.000495834
      6        7           0.000937621    0.002575705    0.000282599
      7        6          -0.001153658   -0.000773895    0.001651414
      8        6          -0.000534263   -0.000051141    0.000376485
      9        6           0.000595621   -0.000339834   -0.003963015
     10        8          -0.000605069    0.000507756   -0.000294321
     11        6           0.000247610    0.000137613    0.001307973
     12        8           0.000156620   -0.000612792    0.001456812
     13        6          -0.000450027   -0.000090392    0.000080134
     14        1          -0.000298471    0.001527716   -0.000133272
     15        1          -0.000124275   -0.000062933   -0.000062104
     16        1          -0.000101946   -0.000113742    0.000079814
     17        1          -0.000057035   -0.000024400    0.000022417
     18        1          -0.000136747    0.000130641    0.000006975
     19        1           0.000692998   -0.001536198   -0.000400008
     20        1           0.000082749   -0.000110655   -0.000142933
     21        1           0.000150081    0.000056469    0.000391642
     22        1           0.000084583   -0.000127767    0.000029491
     23        1          -0.000395665   -0.000357547    0.000175093
     24        1           0.000083381   -0.000004289   -0.000050630
     25        1           0.000038557    0.000047389    0.000046970
     26        1           0.000005782    0.000094229    0.000001347
     27        1           0.000074399    0.000010570   -0.000046148
 -------------------------------------------------------------------
 Cartesian Forces:  Max     0.003963015 RMS     0.000779319

 GradGradGradGradGradGradGradGradGradGradGradGradGradGradGradGradGradGrad
 Berny optimization.
 Using GEDIIS/GDIIS optimizer.
 FormGI is forming the generalized inverse of G from B-inverse, IUseBI=4.
 Internal  Forces:  Max     0.001922984 RMS     0.000409399
 Search for a local minimum.
 Step number   7 out of a maximum of  135
 All quantities printed in internal units (Hartrees-Bohrs-Radians)
 Mixed Optimization -- En-DIIS/RFO-DIIS
 Swapping is turned off.
 Update second derivatives using D2CorX and points    3    4    5    6    7
 DE=  6.40D-06 DEPred=-8.27D-05 R=-7.74D-02
 Trust test=-7.74D-02 RLast= 2.18D-01 DXMaxT set to 4.24D-01
 ITU= -1  1  1  0  1  1  0
     Eigenvalues ---    0.00090   0.00370   0.00388   0.00674   0.00831
     Eigenvalues ---    0.00842   0.00886   0.01414   0.01463   0.01702
     Eigenvalues ---    0.02290   0.02409   0.02755   0.04094   0.04267
     Eigenvalues ---    0.04907   0.05043   0.05327   0.05561   0.05656
     Eigenvalues ---    0.05739   0.05757   0.06535   0.07406   0.07662
     Eigenvalues ---    0.09068   0.13109   0.15687   0.15838   0.15997
     Eigenvalues ---    0.15999   0.16000   0.16000   0.16003   0.16035
     Eigenvalues ---    0.16048   0.16325   0.16401   0.17022   0.17461
     Eigenvalues ---    0.20142   0.21968   0.21989   0.24596   0.24987
     Eigenvalues ---    0.25057   0.25365   0.26664   0.27194   0.29519
     Eigenvalues ---    0.30080   0.32128   0.33187   0.33412   0.34806
     Eigenvalues ---    0.34806   0.34809   0.34812   0.34815   0.34816
     Eigenvalues ---    0.34818   0.34821   0.34831   0.34853   0.34909
     Eigenvalues ---    0.35149   0.36380   0.37067   0.53345   0.55101
     Eigenvalues ---    0.56631   0.61521   0.97860   0.98412   1.02494
 En-DIIS/RFO-DIIS/Sim-DIIS IScMMF=       -3 using points:     7    6    5    4    3
 RFO step:  Lambda=-1.85570276D-04.
 EnCoef did   100 forward-backward iterations
 EnCoef did   100 forward-backward iterations
 EnCoef did     9 forward-backward iterations
 DidBck=T Rises=T En-DIIS coefs:    0.51127    0.25691    0.23183    0.00000    0.00000
 Iteration  1 RMS(Cart)=  0.03770399 RMS(Int)=  0.00089116
 Iteration  2 RMS(Cart)=  0.00118157 RMS(Int)=  0.00002987
 Iteration  3 RMS(Cart)=  0.00000124 RMS(Int)=  0.00002987
 Iteration  4 RMS(Cart)=  0.00000000 RMS(Int)=  0.00002987
 Variable       Old X    -DE/DX   Delta X   Delta X   Delta X     New X
                                 (Linear)    (Quad)   (Total)
    R1        2.75034  -0.00005  -0.00039   0.00031  -0.00007   2.75026
    R2        2.51409  -0.00083  -0.00193   0.00085  -0.00108   2.51301
    R3        1.90142   0.00156   0.00153  -0.00120   0.00033   1.90176
    R4        2.05701  -0.00005   0.00010  -0.00019  -0.00009   2.05691
    R5        2.05039   0.00003   0.00015  -0.00011   0.00003   2.05042
    R6        2.05697   0.00001   0.00012  -0.00010   0.00002   2.05699
    R7        2.33657   0.00076   0.00094  -0.00051   0.00043   2.33700
    R8        2.87623  -0.00062   0.00032  -0.00346  -0.00314   2.87309
    R9        2.73962   0.00035   0.00048   0.00012   0.00060   2.74022
   R10        2.89502  -0.00061  -0.00368   0.00325  -0.00043   2.89459
   R11        2.05857   0.00011   0.00098  -0.00125  -0.00027   2.05830
   R12        2.50905  -0.00192  -0.00320   0.00244  -0.00077   2.50828
   R13        1.90930   0.00151   0.00184  -0.00161   0.00023   1.90953
   R14        2.91104   0.00085   0.00550  -0.00507   0.00043   2.91147
   R15        2.32534   0.00050   0.00086  -0.00124  -0.00039   2.32495
   R16        2.05837  -0.00013  -0.00016   0.00054   0.00039   2.05876
   R17        2.05689  -0.00003   0.00024  -0.00038  -0.00015   2.05675
   R18        2.05955   0.00009   0.00011   0.00003   0.00014   2.05969
   R19        2.81717  -0.00048  -0.00243   0.00185  -0.00058   2.81659
   R20        2.28709   0.00069  -0.00018   0.00003  -0.00014   2.28695
   R21        2.87033  -0.00031  -0.00226   0.00133  -0.00093   2.86940
   R22        2.06679  -0.00033   0.00022  -0.00028  -0.00006   2.06674
   R23        2.06682  -0.00004   0.00024   0.00001   0.00025   2.06707
   R24        2.05899  -0.00007   0.00003  -0.00001   0.00003   2.05901
   R25        2.05688   0.00006   0.00025  -0.00022   0.00003   2.05691
   R26        2.05890  -0.00005   0.00006  -0.00001   0.00004   2.05895
    A1        2.12094   0.00002   0.00144  -0.00005   0.00140   2.12234
    A2        2.08999  -0.00009  -0.00138   0.00246   0.00110   2.09109
    A3        2.07184   0.00007   0.00014  -0.00314  -0.00299   2.06885
    A4        1.92742   0.00013   0.00056  -0.00079  -0.00024   1.92718
    A5        1.88709   0.00020   0.00110  -0.00092   0.00018   1.88727
    A6        1.92852   0.00003   0.00034  -0.00066  -0.00032   1.92820
    A7        1.90783  -0.00015  -0.00050   0.00040  -0.00010   1.90772
    A8        1.90410  -0.00011  -0.00068   0.00084   0.00016   1.90426
    A9        1.90866  -0.00011  -0.00083   0.00116   0.00033   1.90900
   A10        2.14428   0.00075   0.00096   0.00364   0.00464   2.14892
   A11        2.02009  -0.00049  -0.00143  -0.00062  -0.00201   2.01808
   A12        2.11802  -0.00024   0.00079  -0.00327  -0.00244   2.11558
   A13        1.87906  -0.00000  -0.00028  -0.00076  -0.00102   1.87804
   A14        1.91637   0.00002   0.00771  -0.01954  -0.01184   1.90454
   A15        1.90858  -0.00013  -0.00673   0.01079   0.00406   1.91264
   A16        1.94903   0.00007   0.00002   0.00313   0.00314   1.95217
   A17        1.89455   0.00000  -0.00136   0.00660   0.00525   1.89981
   A18        1.91551   0.00003   0.00029   0.00032   0.00057   1.91607
   A19        2.13245   0.00008   0.00371  -0.00401  -0.00030   2.13215
   A20        2.06602   0.00056   0.00175  -0.00267  -0.00092   2.06510
   A21        2.08451  -0.00064  -0.00547   0.00673   0.00126   2.08577
   A22        1.99141  -0.00026  -0.00206   0.00218   0.00010   1.99152
   A23        2.18861  -0.00061   0.00053  -0.00150  -0.00098   2.18763
   A24        2.10315   0.00087   0.00153  -0.00063   0.00089   2.10404
   A25        1.91961   0.00035   0.00255  -0.00730  -0.00475   1.91486
   A26        1.91511  -0.00061  -0.00378   0.00490   0.00112   1.91622
   A27        1.92178  -0.00012   0.00077  -0.00051   0.00026   1.92203
   A28        1.89672   0.00013  -0.00046   0.00263   0.00217   1.89888
   A29        1.90583  -0.00002   0.00011   0.00080   0.00092   1.90675
   A30        1.90452   0.00029   0.00079  -0.00045   0.00035   1.90487
   A31        2.02811  -0.00030  -0.00128   0.00134  -0.00013   2.02798
   A32        2.07888   0.00042  -0.00040   0.00065   0.00006   2.07894
   A33        2.17574  -0.00008   0.00189  -0.00125   0.00046   2.17621
   A34        1.97067   0.00010   0.00168  -0.00139   0.00029   1.97096
   A35        1.86920  -0.00041  -0.00237   0.00157  -0.00080   1.86840
   A36        1.86681   0.00013  -0.00105   0.00144   0.00040   1.86721
   A37        1.95486   0.00025   0.00192  -0.00102   0.00089   1.95576
   A38        1.95529  -0.00012   0.00195  -0.00162   0.00033   1.95562
   A39        1.83903   0.00004  -0.00270   0.00143  -0.00127   1.83776
   A40        1.93519   0.00006   0.00028  -0.00036  -0.00008   1.93511
   A41        1.91855  -0.00015   0.00087  -0.00045   0.00041   1.91896
   A42        1.93546   0.00012   0.00032  -0.00029   0.00004   1.93549
   A43        1.89182   0.00002  -0.00058   0.00050  -0.00008   1.89174
   A44        1.88952  -0.00004  -0.00029   0.00007  -0.00022   1.88930
   A45        1.89211  -0.00000  -0.00065   0.00057  -0.00008   1.89203
    D1        1.07739  -0.00004  -0.00884   0.01762   0.00879   1.08617
    D2       -3.11919  -0.00002  -0.00844   0.01707   0.00863  -3.11056
    D3       -1.03092  -0.00001  -0.00857   0.01753   0.00896  -1.02196
    D4       -2.09554  -0.00004   0.00412  -0.01034  -0.00622  -2.10176
    D5       -0.00893  -0.00002   0.00451  -0.01089  -0.00638  -0.01531
    D6        2.07934  -0.00000   0.00438  -0.01043  -0.00606   2.07329
    D7       -0.02763  -0.00023   0.00594  -0.02441  -0.01847  -0.04610
    D8        3.07159   0.00019   0.01838  -0.03128  -0.01289   3.05870
    D9       -3.13821  -0.00023  -0.00688   0.00317  -0.00371   3.14126
   D10       -0.03898   0.00019   0.00556  -0.00370   0.00186  -0.03712
   D11        2.84325  -0.00042   0.03382  -0.09862  -0.06481   2.77845
   D12       -1.31462  -0.00032   0.03834  -0.10696  -0.06862  -1.38324
   D13        0.78802  -0.00035   0.03920  -0.11194  -0.07272   0.71531
   D14       -0.34001   0.00002   0.04606  -0.10520  -0.05916  -0.39917
   D15        1.78530   0.00012   0.05058  -0.11354  -0.06297   1.72233
   D16       -2.39524   0.00009   0.05143  -0.11851  -0.06707  -2.46231
   D17       -2.81031   0.00015   0.01544  -0.03105  -0.01560  -2.82591
   D18        0.30942   0.00026   0.01518  -0.02891  -0.01374   0.29568
   D19        1.36799   0.00008   0.00608  -0.00832  -0.00224   1.36575
   D20       -1.79547   0.00019   0.00581  -0.00619  -0.00037  -1.79584
   D21       -0.74602  -0.00001   0.00661  -0.01509  -0.00849  -0.75451
   D22        2.37370   0.00011   0.00634  -0.01296  -0.00662   2.36708
   D23        1.15625  -0.00007  -0.00445   0.00322  -0.00123   1.15501
   D24       -3.04135  -0.00008  -0.00580   0.00498  -0.00081  -3.04216
   D25       -0.94479  -0.00019  -0.00672   0.00720   0.00048  -0.94430
   D26       -3.04399  -0.00001   0.00035  -0.00861  -0.00827  -3.05227
   D27       -0.95841  -0.00002  -0.00100  -0.00685  -0.00785  -0.96626
   D28        1.13816  -0.00013  -0.00192  -0.00463  -0.00656   1.13160
   D29       -0.94220   0.00006  -0.00115   0.00193   0.00078  -0.94141
   D30        1.14339   0.00005  -0.00250   0.00370   0.00120   1.14460
   D31       -3.04323  -0.00006  -0.00342   0.00591   0.00250  -3.04073
   D32       -3.13827  -0.00001  -0.00248   0.00649   0.00401  -3.13426
   D33        0.00852  -0.00013  -0.00180  -0.00211  -0.00391   0.00461
   D34        0.02541  -0.00014  -0.00230   0.00445   0.00215   0.02756
   D35       -3.11098  -0.00026  -0.00163  -0.00415  -0.00577  -3.11675
   D36       -3.13297   0.00048   0.00530   0.01571   0.02102  -3.11195
   D37        0.03955  -0.00061  -0.01090  -0.00945  -0.02036   0.01919
   D38        0.00370   0.00060   0.00466   0.02384   0.02851   0.03222
   D39       -3.10696  -0.00050  -0.01154  -0.00132  -0.01287  -3.11983
   D40       -3.12328  -0.00066  -0.01020  -0.01289  -0.02309   3.13682
   D41       -0.96341  -0.00057  -0.00838  -0.01397  -0.02234  -0.98574
   D42        1.00119  -0.00066  -0.01301  -0.01096  -0.02397   0.97722
   D43       -0.01454   0.00052   0.00700   0.01388   0.02087   0.00633
   D44        2.14533   0.00060   0.00882   0.01280   0.02162   2.16695
   D45       -2.17326   0.00052   0.00419   0.01581   0.01999  -2.15327
   D46        1.05105  -0.00011  -0.00060  -0.00026  -0.00086   1.05019
   D47       -3.14066  -0.00015  -0.00059  -0.00015  -0.00074  -3.14141
   D48       -1.04865  -0.00018  -0.00064   0.00008  -0.00056  -1.04920
   D49       -1.06083   0.00017  -0.00014  -0.00055  -0.00069  -1.06151
   D50        1.03065   0.00014  -0.00013  -0.00044  -0.00057   1.03008
   D51        3.12266   0.00011  -0.00017  -0.00021  -0.00038   3.12228
   D52       -3.12306   0.00004   0.00068  -0.00058   0.00010  -3.12296
   D53       -1.03159   0.00000   0.00069  -0.00047   0.00022  -1.03137
   D54        1.06043  -0.00003   0.00065  -0.00024   0.00041   1.06083
         Item               Value     Threshold  Converged?
 Maximum Force            0.001923     0.000450     NO 
 RMS     Force            0.000409     0.000300     NO 
 Maximum Displacement     0.182178     0.001800     NO 
 RMS     Displacement     0.037835     0.001200     NO 
 Predicted change in Energy=-9.581290D-05
 GradGradGradGradGradGradGradGradGradGradGradGradGradGradGradGradGradGrad

                          Input orientation:                          
 ---------------------------------------------------------------------
 Center     Atomic      Atomic             Coordinates (Angstroms)
 Number     Number       Type             X           Y           Z
 ---------------------------------------------------------------------
      1          7           0       -3.473714    1.226901    0.910614
      2          6           0       -4.573861    0.394384    1.373985
      3          6           0       -2.326689    0.697875    0.494785
      4          8           0       -2.095889   -0.516906    0.515692
      5          6           0       -1.312691    1.683024   -0.064525
      6          7           0       -0.007553    1.054736    0.002877
      7          6           0        1.118051    1.754052   -0.073062
      8          6           0       -1.700169    2.039587   -1.502922
      9          6           0        2.396934    0.898769    0.008500
     10          8           0        1.189724    2.975655   -0.200386
     11          6           0        3.688688    1.641190   -0.032688
     12          8           0        2.296154   -0.302885    0.110783
     13          6           0        4.898707    0.728489    0.059139
     14          1           0       -3.587720    2.225655    0.862984
     15          1           0       -4.276890   -0.171527    2.255076
     16          1           0       -5.405024    1.043891    1.628171
     17          1           0       -4.882460   -0.298215    0.593005
     18          1           0       -1.301919    2.583384    0.548339
     19          1           0        0.036381    0.053114    0.128950
     20          1           0       -2.641055    2.588794   -1.504656
     21          1           0       -0.928438    2.664588   -1.948323
     22          1           0       -1.812437    1.132604   -2.096851
     23          1           0        3.689370    2.232806   -0.952525
     24          1           0        3.663108    2.372240    0.780585
     25          1           0        4.915200    0.021123   -0.769446
     26          1           0        5.812565    1.318792    0.024914
     27          1           0        4.889128    0.162981    0.990387
 ---------------------------------------------------------------------
                    Distance matrix (angstroms):
                    1          2          3          4          5
     1  N    0.000000
     2  C    1.455377   0.000000
     3  C    1.329830   2.432053   0.000000
     4  O    2.257261   2.776232   1.236688   0.000000
     5  C    2.414324   3.790136   1.520375   2.406188   0.000000
     6  N    3.587186   4.813229   2.397440   2.663491   1.450061
     7  C    4.725443   6.028309   3.647492   3.979106   2.431795
     8  C    3.103397   4.386501   2.486675   3.281318   1.531750
     9  C    5.948612   7.121161   4.752836   4.737809   3.792322
    10  O    5.102952   6.508496   4.246965   4.848299   2.819829
    11  C    7.236121   8.473663   6.111696   6.198340   5.001655
    12  O    6.022570   7.019898   4.745488   4.415857   4.122903
    13  C    8.430353   9.569221   7.238582   7.119256   6.285531
    14  H    1.006368   2.141764   2.014915   3.141307   2.516044
    15  H    2.099588   1.088471   2.767267   2.810963   4.195996
    16  H    2.068414   1.085035   3.298550   3.824143   4.474471
    17  H    2.100338   1.088511   2.744778   2.796209   4.135324
    18  H    2.586113   4.022315   2.146664   3.200508   1.089204
    19  H    3.782795   4.787579   2.476621   2.240773   2.124625
    20  H    2.895100   4.103383   2.769868   3.744915   2.158459
    21  H    4.088874   5.429610   3.433926   4.190014   2.158660
    22  H    3.437089   4.496347   2.677691   3.102678   2.164037
    23  H    7.469464   8.779148   6.375240   6.571590   5.109933
    24  H    7.229311   8.491861   6.225982   6.448517   5.093899
    25  H    8.640045   9.735292   7.382495   7.148176   6.484247
    26  H    9.328874  10.514389   8.176416   8.133529   7.135121
    27  H    8.430623   9.473587   7.252568   7.034062   6.471934
                    6          7          8          9         10
     6  N    0.000000
     7  C    1.327326   0.000000
     8  C    2.470286   3.173073   0.000000
     9  C    2.409546   1.540683   4.513547   0.000000
    10  O    2.272602   1.230310   3.305193   2.411316   0.000000
    11  C    3.742644   2.573430   5.600007   1.490474   2.837911
    12  O    2.676162   2.377544   4.905284   1.210203   3.474168
    13  C    4.917416   3.919517   6.906820   2.508072   4.344383
    14  H    3.863733   4.821086   3.032322   6.189253   4.951487
    15  H    4.980298   6.183322   5.064688   7.122680   6.768894
    16  H    5.636878   6.778571   4.951878   7.969626   7.110980
    17  H    5.093472   6.376643   4.470481   7.400270   6.943999
    18  H    2.075976   2.632524   2.159164   4.100106   2.631112
    19  H    1.010480   2.025835   3.102367   2.510349   3.159099
    20  H    3.400195   4.108179   1.089449   5.525139   4.065175
    21  H    2.691995   2.921266   1.088383   4.243274   2.763812
    22  H    2.769934   3.615201   1.089942   4.712323   4.000798
    23  H    3.995983   2.759410   5.421014   2.091319   2.713995
    24  H    3.976732   2.754666   5.838647   2.090557   2.728377
    25  H    5.089040   4.231588   6.955234   2.777972   4.788764
    26  H    5.826147   4.715667   7.700325   3.441399   4.915956
    27  H    5.074237   4.228883   7.290889   2.777861   4.797360
                   11         12         13         14         15
    11  C    0.000000
    12  O    2.395655   0.000000
    13  C    1.518420   2.799943   0.000000
    14  H    7.354586   6.448200   8.654889   0.000000
    15  H    8.483527   6.915212   9.477539   2.856459   0.000000
    16  H    9.263412   7.963944  10.427281   2.298841   1.772833
    17  H    8.810072   7.194794   9.849384   2.849414   1.773485
    18  H    5.111896   4.633371   6.490586   2.334921   4.399197
    19  H    3.985907   2.287715   4.909503   4.288688   4.814061
    20  H    6.567366   5.945375   7.921755   2.575609   4.942764
    21  H    5.102436   4.841880   6.460185   3.894597   6.076533
    22  H    5.897610   4.880041   7.060527   3.620361   5.168517
    23  H    1.093669   3.082435   2.179204   7.500144   8.918005
    24  H    1.093847   3.077904   2.179244   7.252777   8.466903
    25  H    2.161425   2.781940   1.089583   8.934452   9.678811
    26  H    2.148980   3.873288   1.088470   9.481040  10.439913
    27  H    2.161675   2.777453   1.089548   8.725125   9.258899
                   16         17         18         19         20
    16  H    0.000000
    17  H    1.773665   0.000000
    18  H    4.513485   4.596290   0.000000
    19  H    5.730461   4.953158   2.892956   0.000000
    20  H    4.454307   4.214131   2.451143   4.033237   0.000000
    21  H    5.954644   5.556154   2.525748   3.473576   1.770775
    22  H    5.175938   4.325230   3.059807   3.088303   1.777018
    23  H    9.527933   9.070336   5.223836   4.389188   6.364421
    24  H    9.204017   8.955069   4.974938   4.353863   6.709075
    25  H   10.644324   9.897090   6.852321   4.960949   8.014391
    26  H   11.334915  10.831483   7.244933   5.914142   8.684250
    27  H   10.351440   9.790533   6.662043   4.929837   8.295388
                   21         22         23         24         25
    21  H    0.000000
    22  H    1.774962   0.000000
    23  H    4.743648   5.726238   0.000000
    24  H    5.349270   6.308560   1.738908   0.000000
    25  H    6.521178   6.946833   2.535295   3.081896   0.000000
    26  H    7.151640   7.916894   2.509735   2.510171   1.766413
    27  H    6.981269   7.441920   3.081964   2.535344   1.765733
                   26         27
    26  H    0.000000
    27  H    1.766571   0.000000
 Stoichiometry    C8H14N2O3
 Framework group  C1[X(C8H14N2O3)]
 Deg. of freedom    75
 Full point group                 C1      NOp   1
 Largest Abelian subgroup         C1      NOp   1
 Largest concise Abelian subgroup C1      NOp   1
                         Standard orientation:                         
 ---------------------------------------------------------------------
 Center     Atomic      Atomic             Coordinates (Angstroms)
 Number     Number       Type             X           Y           Z
 ---------------------------------------------------------------------
      1          7           0        3.504573    0.056495   -0.537260
      2          6           0        4.680737   -0.800449   -0.517071
      3          6           0        2.348548   -0.334252   -0.008705
      4          8           0        2.176548   -1.453784    0.487745
      5          6           0        1.241941    0.708310   -0.003784
      6          7           0       -0.020765    0.006964    0.124130
      7          6           0       -1.179265    0.575077   -0.187191
      8          6           0        1.473994    1.680874    1.156617
      9          6           0       -2.404140   -0.334157    0.028860
     10          8           0       -1.318491    1.721645   -0.611055
     11          6           0       -3.726521    0.243979   -0.343402
     12          8           0       -2.239265   -1.449601    0.468398
     13          6           0       -4.879315   -0.715582   -0.106956
     14          1           0        3.567760    0.983809   -0.923100
     15          1           0        4.495186   -1.713338   -1.080076
     16          1           0        5.501769   -0.257840   -0.973998
     17          1           0        4.944900   -1.060513    0.506374
     18          1           0        1.248435    1.252126   -0.947495
     19          1           0       -0.006672   -0.950961    0.445456
     20          1           0        2.384353    2.252773    0.980327
     21          1           0        0.635606    2.370742    1.232537
     22          1           0        1.570534    1.131326    2.092914
     23          1           0       -3.841822    1.172090    0.223544
     24          1           0       -3.657057    0.552264   -1.390606
     25          1           0       -4.942284   -0.995234    0.944244
     26          1           0       -5.818300   -0.245916   -0.394163
     27          1           0       -4.755273   -1.624420   -0.694953
 ---------------------------------------------------------------------
 Rotational constants (GHZ):           1.9848667           0.3303963           0.3012576
 Standard basis: 6-311+G(d,p) (5D, 7F)
 There are   383 symmetry adapted cartesian basis functions of A   symmetry.
 There are   370 symmetry adapted basis functions of A   symmetry.
   370 basis functions,   580 primitive gaussians,   383 cartesian basis functions
    50 alpha electrons       50 beta electrons
       nuclear repulsion energy       812.4190649354 Hartrees.
 NAtoms=   27 NActive=   27 NUniq=   27 SFac= 1.00D+00 NAtFMM=   60 NAOKFM=F Big=F
 Integral buffers will be    131072 words long.
 Raffenetti 2 integral format.
 Two-electron integral symmetry is turned on.
 ------------------------------------------------------------------------------
 Polarizable Continuum Model (PCM)
 =================================
 Model                : PCM.
 Atomic radii         : SMD-Coulomb.
 Polarization charges : Total charges.
 Charge compensation  : None.
 Solution method      : On-the-fly selection.
 Cavity type          : VdW (van der Waals Surface) (Alpha=1.000).
 Cavity algorithm     : GePol (No added spheres)
                        Default sphere list used, NSphG=   27.
                        Lebedev-Laikov grids with approx.  5.0 points / Ang**2.
                        Smoothing algorithm: York/Karplus (Gamma=1.0000).
                        Polarization charges: spherical gaussians, with
                                              point-specific exponents (IZeta= 3).
                        Self-potential: point-specific (ISelfS= 7).
                        Self-field    : sphere-specific E.n sum rule (ISelfD= 2).
 1st derivatives      : Analytical E(r).r(x)/FMM algorithm (CHGder, D1EAlg=3).
                        Cavity 1st derivative terms included.
 Solvent              : Water, Eps=  78.355300 Eps(inf)=   1.777849
 ------------------------------------------------------------------------------
 ------------------------------------------------------------------------------
 Atomic radii for non-electrostatic terms: SMD-CDS.
 ------------------------------------------------------------------------------
 Nuclear repulsion after PCM non-electrostatic terms =      812.4293265265 Hartrees.
 One-electron integrals computed using PRISM.
 NBasis=   370 RedAO= T EigKep=  4.89D-06  NBF=   370
 NBsUse=   370 1.00D-06 EigRej= -1.00D+00 NBFU=   370
 Initial guess from the checkpoint file:  "2KT_3D.chk"
 B after Tr=     0.000000   -0.000000   -0.000000
         Rot=    0.999998    0.001927   -0.000341   -0.000060 Ang=   0.22 deg.
 ExpMin= 4.38D-02 ExpMax= 8.59D+03 ExpMxC= 1.30D+03 IAcc=3 IRadAn=         5 AccDes= 0.00D+00
 Harris functional with IExCor= 1009 and IRadAn=       5 diagonalized for initial guess.
 HarFok:  IExCor= 1009 AccDes= 0.00D+00 IRadAn=         5 IDoV= 1 UseB2=F ITyADJ=14
 ICtDFT=  3500011 ScaDFX=  1.000000  1.000000  1.000000  1.000000
 FoFCou: FMM=F IPFlag=           0 FMFlag=      100000 FMFlg1=           0
         NFxFlg=           0 DoJE=T BraDBF=F KetDBF=T FulRan=T
         wScrn=  0.000000 ICntrl=       500 IOpCl=  0 I1Cent=   200000004 NGrid=           0
         NMat0=    1 NMatS0=      1 NMatT0=    0 NMatD0=    1 NMtDS0=    0 NMtDT0=    0
 Petite list used in FoFCou.
 Requested convergence on RMS density matrix=1.00D-08 within 128 cycles.
 Requested convergence on MAX density matrix=1.00D-06.
 Requested convergence on             energy=1.00D-06.
 No special actions if energy rises.
 Inv3:  Mode=1 IEnd=    11513043.
 Iteration    1 A*A^-1 deviation from unit magnitude is 6.77D-15 for    254.
 Iteration    1 A*A^-1 deviation from orthogonality  is 2.71D-15 for   1768    214.
 Iteration    1 A^-1*A deviation from unit magnitude is 6.00D-15 for   1949.
 Iteration    1 A^-1*A deviation from orthogonality  is 1.88D-15 for   1892   1502.
 Error on total polarization charges =  0.05801
 SCF Done:  E(RM052X) =  -648.621139897     A.U. after   13 cycles
            NFock= 13  Conv=0.48D-08     -V/T= 2.0038
 SMD-CDS (non-electrostatic) energy       (kcal/mol) =       6.44
 (included in total energy above)
 D1PCM: PCM CHGder 1st derivatives, ID1Alg=3 FixD1E=F DoIter=F DoCFld=F I1PDM=0.
 Calling FoFJK, ICntrl=      2127 FMM=F ISym2X=0 I1Cent= 0 IOpClX= 0 NMat=1 NMatS=1 NMatT=0.
 ***** Axes restored to original set *****
 -------------------------------------------------------------------
 Center     Atomic                   Forces (Hartrees/Bohr)
 Number     Number              X              Y              Z
 -------------------------------------------------------------------
      1        7           0.000827749   -0.001816854   -0.000115198
      2        6           0.000291533    0.000286247   -0.000012380
      3        6          -0.000503743    0.001210708    0.001064773
      4        8          -0.000135814   -0.000598570   -0.000094735
      5        6          -0.000507719   -0.000516215   -0.001083337
      6        7           0.000453309    0.002603755    0.000670375
      7        6          -0.000857651   -0.001124167   -0.001084792
      8        6          -0.000123560    0.000290230    0.000239710
      9        6           0.000408723    0.000249696    0.001618706
     10        8          -0.000392373    0.000856701    0.000211527
     11        6           0.000091775    0.000310418   -0.000517593
     12        8           0.000159100   -0.000826135   -0.000373876
     13        6          -0.000246249   -0.000253029   -0.000010812
     14        1          -0.000495510    0.001400823   -0.000033601
     15        1          -0.000116916   -0.000083388   -0.000035250
     16        1          -0.000095178   -0.000159654    0.000085460
     17        1          -0.000073181   -0.000039013    0.000046848
     18        1           0.000285703    0.000020316    0.000054728
     19        1           0.000759700   -0.001478484   -0.000617951
     20        1           0.000234941   -0.000085801   -0.000435983
     21        1           0.000079076    0.000140412    0.000264482
     22        1           0.000099651   -0.000068511    0.000076328
     23        1          -0.000035211   -0.000200114    0.000090906
     24        1          -0.000214998   -0.000290067   -0.000008579
     25        1           0.000061564    0.000037065    0.000049416
     26        1          -0.000010957    0.000100501   -0.000003585
     27        1           0.000056237    0.000033130   -0.000045588
 -------------------------------------------------------------------
 Cartesian Forces:  Max     0.002603755 RMS     0.000619469

 GradGradGradGradGradGradGradGradGradGradGradGradGradGradGradGradGradGrad
 Berny optimization.
 Using GEDIIS/GDIIS optimizer.
 FormGI is forming the generalized inverse of G from B-inverse, IUseBI=4.
 Internal  Forces:  Max     0.001451073 RMS     0.000364117
 Search for a local minimum.
 Step number   8 out of a maximum of  135
 All quantities printed in internal units (Hartrees-Bohrs-Radians)
 Mixed Optimization -- En-DIIS/RFO-DIIS
 Swapping is turned off.
 Update second derivatives using D2CorX and points    4    5    6    7    8
 DE= -7.11D-05 DEPred=-9.58D-05 R= 7.43D-01
 TightC=F SS=  1.41D+00  RLast= 1.81D-01 DXNew= 7.1352D-01 5.4395D-01
 Trust test= 7.43D-01 RLast= 1.81D-01 DXMaxT set to 5.44D-01
 ITU=  1 -1  1  1  0  1  1  0
     Eigenvalues ---    0.00127   0.00370   0.00385   0.00674   0.00832
     Eigenvalues ---    0.00874   0.00887   0.01413   0.01471   0.01810
     Eigenvalues ---    0.02361   0.02411   0.03141   0.03530   0.04216
     Eigenvalues ---    0.04930   0.05100   0.05232   0.05561   0.05654
     Eigenvalues ---    0.05738   0.05765   0.06684   0.07410   0.07661
     Eigenvalues ---    0.09074   0.13148   0.15638   0.15961   0.15994
     Eigenvalues ---    0.16000   0.16000   0.16002   0.16010   0.16026
     Eigenvalues ---    0.16062   0.16324   0.16833   0.17179   0.18231
     Eigenvalues ---    0.20224   0.21965   0.22073   0.24809   0.24985
     Eigenvalues ---    0.25158   0.25598   0.26621   0.27069   0.29513
     Eigenvalues ---    0.30117   0.32152   0.33102   0.34130   0.34806
     Eigenvalues ---    0.34808   0.34810   0.34813   0.34815   0.34818
     Eigenvalues ---    0.34819   0.34823   0.34833   0.34856   0.34905
     Eigenvalues ---    0.35571   0.36394   0.37215   0.53350   0.55125
     Eigenvalues ---    0.56541   0.64043   0.97903   0.98623   1.03056
 En-DIIS/RFO-DIIS/Sim-DIIS IScMMF=       -3 using points:     8    7    6    5    4    3
 RFO step:  Lambda=-7.32325094D-05.
 DidBck=T Rises=F RFO-DIIS coefs:    0.72237    0.23423    0.56935   -0.64205   -0.08712
                  RFO-DIIS coefs:    0.20322
 Iteration  1 RMS(Cart)=  0.01260221 RMS(Int)=  0.00009728
 Iteration  2 RMS(Cart)=  0.00014116 RMS(Int)=  0.00001890
 Iteration  3 RMS(Cart)=  0.00000002 RMS(Int)=  0.00001890
 Variable       Old X    -DE/DX   Delta X   Delta X   Delta X     New X
                                 (Linear)    (Quad)   (Total)
    R1        2.75026   0.00001   0.00040  -0.00045  -0.00005   2.75022
    R2        2.51301  -0.00046   0.00272  -0.00297  -0.00025   2.51277
    R3        1.90176   0.00145  -0.00033   0.00176   0.00143   1.90319
    R4        2.05691  -0.00001  -0.00010   0.00010   0.00000   2.05692
    R5        2.05042   0.00000  -0.00020   0.00020   0.00000   2.05042
    R6        2.05699   0.00000  -0.00017   0.00017   0.00000   2.05699
    R7        2.33700   0.00056  -0.00105   0.00134   0.00029   2.33729
    R8        2.87309   0.00040   0.00249  -0.00147   0.00101   2.87410
    R9        2.74022   0.00019  -0.00089   0.00101   0.00011   2.74033
   R10        2.89459  -0.00013   0.00374  -0.00439  -0.00065   2.89394
   R11        2.05830   0.00005  -0.00065   0.00088   0.00023   2.05853
   R12        2.50828  -0.00139   0.00272  -0.00390  -0.00118   2.50710
   R13        1.90953   0.00142  -0.00059   0.00203   0.00144   1.91098
   R14        2.91147   0.00071  -0.00540   0.00657   0.00117   2.91264
   R15        2.32495   0.00081  -0.00012   0.00074   0.00062   2.32557
   R16        2.05876  -0.00025  -0.00052   0.00013  -0.00039   2.05837
   R17        2.05675   0.00002  -0.00016   0.00024   0.00008   2.05683
   R18        2.05969   0.00002  -0.00015   0.00017   0.00001   2.05971
   R19        2.81659  -0.00036   0.00270  -0.00310  -0.00040   2.81618
   R20        2.28695   0.00077   0.00079  -0.00040   0.00039   2.28735
   R21        2.86940  -0.00007   0.00323  -0.00326  -0.00003   2.86937
   R22        2.06674  -0.00018  -0.00067   0.00041  -0.00026   2.06648
   R23        2.06707  -0.00020  -0.00068   0.00042  -0.00026   2.06681
   R24        2.05901  -0.00007  -0.00019   0.00008  -0.00012   2.05890
   R25        2.05691   0.00005  -0.00025   0.00033   0.00009   2.05700
   R26        2.05895  -0.00006  -0.00021   0.00010  -0.00010   2.05885
    A1        2.12234  -0.00025  -0.00342   0.00272  -0.00071   2.12163
    A2        2.09109  -0.00018  -0.00015  -0.00078  -0.00093   2.09016
    A3        2.06885   0.00043   0.00370  -0.00184   0.00187   2.07072
    A4        1.92718   0.00012   0.00019   0.00026   0.00045   1.92763
    A5        1.88727   0.00025  -0.00087   0.00154   0.00067   1.88794
    A6        1.92820   0.00007   0.00009   0.00026   0.00035   1.92855
    A7        1.90772  -0.00017   0.00026  -0.00066  -0.00040   1.90732
    A8        1.90426  -0.00014   0.00010  -0.00068  -0.00058   1.90368
    A9        1.90900  -0.00014   0.00023  -0.00072  -0.00049   1.90850
   A10        2.14892  -0.00057  -0.00478   0.00330  -0.00147   2.14745
   A11        2.01808   0.00070   0.00304  -0.00228   0.00076   2.01884
   A12        2.11558  -0.00013   0.00177  -0.00110   0.00067   2.11625
   A13        1.87804   0.00002   0.00150  -0.00076   0.00071   1.87875
   A14        1.90454   0.00090   0.00572   0.00115   0.00688   1.91141
   A15        1.91264  -0.00040   0.00164  -0.00499  -0.00333   1.90931
   A16        1.95217  -0.00061  -0.00319   0.00171  -0.00142   1.95074
   A17        1.89981   0.00002  -0.00485   0.00183  -0.00301   1.89680
   A18        1.91607   0.00006  -0.00088   0.00085   0.00006   1.91613
   A19        2.13215   0.00010  -0.00369   0.00430   0.00061   2.13276
   A20        2.06510   0.00062   0.00097   0.00128   0.00225   2.06735
   A21        2.08577  -0.00072   0.00275  -0.00555  -0.00280   2.08297
   A22        1.99152  -0.00026   0.00134  -0.00225  -0.00091   1.99061
   A23        2.18763  -0.00038  -0.00038   0.00032  -0.00006   2.18757
   A24        2.10404   0.00065  -0.00098   0.00193   0.00095   2.10499
   A25        1.91486   0.00077   0.00444  -0.00072   0.00371   1.91857
   A26        1.91622  -0.00047   0.00064  -0.00299  -0.00234   1.91388
   A27        1.92203  -0.00024  -0.00160   0.00098  -0.00061   1.92143
   A28        1.89888  -0.00015  -0.00180   0.00097  -0.00084   1.89804
   A29        1.90675  -0.00015  -0.00091   0.00072  -0.00019   1.90656
   A30        1.90487   0.00023  -0.00082   0.00107   0.00026   1.90512
   A31        2.02798  -0.00034   0.00096  -0.00166  -0.00066   2.02732
   A32        2.07894   0.00042   0.00145  -0.00095   0.00053   2.07948
   A33        2.17621  -0.00008  -0.00252   0.00265   0.00017   2.17638
   A34        1.97096   0.00014  -0.00207   0.00236   0.00029   1.97125
   A35        1.86840  -0.00005   0.00133  -0.00201  -0.00068   1.86772
   A36        1.86721  -0.00023   0.00133  -0.00210  -0.00078   1.86643
   A37        1.95576  -0.00003  -0.00258   0.00266   0.00008   1.95584
   A38        1.95562   0.00006  -0.00242   0.00251   0.00010   1.95572
   A39        1.83776   0.00010   0.00518  -0.00420   0.00097   1.83873
   A40        1.93511   0.00011   0.00011   0.00027   0.00038   1.93549
   A41        1.91896  -0.00018  -0.00220   0.00152  -0.00068   1.91828
   A42        1.93549   0.00007   0.00011   0.00018   0.00029   1.93578
   A43        1.89174   0.00001   0.00068  -0.00073  -0.00006   1.89168
   A44        1.88930  -0.00004   0.00066  -0.00048   0.00018   1.88948
   A45        1.89203   0.00002   0.00071  -0.00083  -0.00013   1.89191
    D1        1.08617  -0.00006  -0.00226  -0.00273  -0.00501   1.08116
    D2       -3.11056  -0.00004  -0.00237  -0.00243  -0.00482  -3.11538
    D3       -1.02196  -0.00002  -0.00257  -0.00221  -0.00480  -1.02676
    D4       -2.10176  -0.00002   0.00151  -0.00018   0.00134  -2.10042
    D5       -0.01531  -0.00001   0.00140   0.00011   0.00153  -0.01379
    D6        2.07329   0.00002   0.00120   0.00033   0.00155   2.07483
    D7       -0.04610   0.00008   0.00414   0.00436   0.00844  -0.03766
    D8        3.05870   0.00011   0.00544   0.00186   0.00731   3.06601
    D9        3.14126   0.00006   0.00042   0.00182   0.00223  -3.13969
   D10       -0.03712   0.00009   0.00172  -0.00068   0.00110  -0.03602
   D11        2.77845  -0.00009   0.02144  -0.00191   0.01960   2.79805
   D12       -1.38324  -0.00028   0.02197   0.00037   0.02236  -1.36088
   D13        0.71531   0.00011   0.02553  -0.00092   0.02462   0.73992
   D14       -0.39917  -0.00007   0.02269  -0.00426   0.01844  -0.38073
   D15        1.72233  -0.00026   0.02322  -0.00198   0.02120   1.74353
   D16       -2.46231   0.00013   0.02678  -0.00327   0.02346  -2.43885
   D17       -2.82591   0.00055   0.00937   0.00758   0.01697  -2.80894
   D18        0.29568   0.00069   0.01180   0.00915   0.02096   0.31664
   D19        1.36575  -0.00022   0.00327   0.00564   0.00889   1.37464
   D20       -1.79584  -0.00008   0.00570   0.00721   0.01287  -1.78297
   D21       -0.75451   0.00008   0.00952   0.00223   0.01177  -0.74274
   D22        2.36708   0.00022   0.01195   0.00379   0.01575   2.38283
   D23        1.15501  -0.00005  -0.00279  -0.00595  -0.00876   1.14625
   D24       -3.04216  -0.00004  -0.00190  -0.00705  -0.00896  -3.05112
   D25       -0.94430  -0.00019  -0.00348  -0.00700  -0.01050  -0.95481
   D26       -3.05227   0.00019   0.00079  -0.00509  -0.00428  -3.05655
   D27       -0.96626   0.00020   0.00169  -0.00619  -0.00447  -0.97073
   D28        1.13160   0.00004   0.00011  -0.00614  -0.00602   1.12558
   D29       -0.94141  -0.00015  -0.00790  -0.00107  -0.00897  -0.95039
   D30        1.14460  -0.00014  -0.00700  -0.00217  -0.00917   1.13543
   D31       -3.04073  -0.00030  -0.00859  -0.00212  -0.01071  -3.05145
   D32       -3.13426  -0.00031  -0.00149  -0.00397  -0.00545  -3.13971
   D33        0.00461   0.00013   0.00476  -0.00148   0.00329   0.00790
   D34        0.02756  -0.00046  -0.00389  -0.00563  -0.00953   0.01804
   D35       -3.11675  -0.00002   0.00236  -0.00315  -0.00079  -3.11754
   D36       -3.11195   0.00003   0.00052  -0.00139  -0.00085  -3.11280
   D37        0.01919   0.00035   0.00162   0.00246   0.00407   0.02326
   D38        0.03222  -0.00038  -0.00541  -0.00374  -0.00913   0.02309
   D39       -3.11983  -0.00007  -0.00430   0.00011  -0.00421  -3.12404
   D40        3.13682   0.00015   0.00124  -0.00007   0.00118   3.13800
   D41       -0.98574   0.00016  -0.00241   0.00340   0.00098  -0.98476
   D42        0.97722   0.00015   0.00469  -0.00328   0.00142   0.97864
   D43        0.00633  -0.00019   0.00010  -0.00414  -0.00405   0.00228
   D44        2.16695  -0.00017  -0.00356  -0.00067  -0.00424   2.16271
   D45       -2.15327  -0.00019   0.00354  -0.00735  -0.00381  -2.15707
   D46        1.05019   0.00008   0.00058  -0.00055   0.00003   1.05022
   D47       -3.14141   0.00006   0.00007  -0.00030  -0.00024   3.14154
   D48       -1.04920   0.00001  -0.00041  -0.00024  -0.00065  -1.04985
   D49       -1.06151   0.00007   0.00224  -0.00159   0.00065  -1.06087
   D50        1.03008   0.00005   0.00173  -0.00135   0.00038   1.03046
   D51        3.12228   0.00000   0.00126  -0.00129  -0.00003   3.12225
   D52       -3.12296  -0.00007  -0.00097   0.00026  -0.00070  -3.12367
   D53       -1.03137  -0.00010  -0.00148   0.00051  -0.00097  -1.03234
   D54        1.06083  -0.00014  -0.00195   0.00057  -0.00138   1.05945
         Item               Value     Threshold  Converged?
 Maximum Force            0.001451     0.000450     NO 
 RMS     Force            0.000364     0.000300     NO 
 Maximum Displacement     0.051425     0.001800     NO 
 RMS     Displacement     0.012624     0.001200     NO 
 Predicted change in Energy=-3.523166D-05
 GradGradGradGradGradGradGradGradGradGradGradGradGradGradGradGradGradGrad

                          Input orientation:                          
 ---------------------------------------------------------------------
 Center     Atomic      Atomic             Coordinates (Angstroms)
 Number     Number       Type             X           Y           Z
 ---------------------------------------------------------------------
      1          7           0       -3.477611    1.227256    0.900927
      2          6           0       -4.570805    0.394328    1.379681
      3          6           0       -2.324415    0.699816    0.500873
      4          8           0       -2.087119   -0.513320    0.542905
      5          6           0       -1.312973    1.682395   -0.068945
      6          7           0       -0.007424    1.054154   -0.008062
      7          6           0        1.117683    1.753988   -0.075136
      8          6           0       -1.703256    2.043131   -1.505174
      9          6           0        2.396283    0.897041    0.005105
     10          8           0        1.189371    2.977614   -0.184993
     11          6           0        3.687946    1.639619   -0.027458
     12          8           0        2.295110   -0.305825    0.094391
     13          6           0        4.897991    0.726621    0.060727
     14          1           0       -3.600642    2.224717    0.835836
     15          1           0       -4.269797   -0.152555    2.271359
     16          1           0       -5.407990    1.040837    1.621445
     17          1           0       -4.873374   -0.315733    0.612136
     18          1           0       -1.296392    2.581665    0.545605
     19          1           0        0.039347    0.050110    0.102953
     20          1           0       -2.646039    2.588665   -1.507779
     21          1           0       -0.933261    2.673173   -1.946568
     22          1           0       -1.810529    1.137834   -2.102602
     23          1           0        3.690331    2.237415   -0.943125
     24          1           0        3.659663    2.364203    0.791307
     25          1           0        4.917111    0.025192   -0.772753
     26          1           0        5.811398    1.318036    0.032758
     27          1           0        4.886891    0.154724    0.987985
 ---------------------------------------------------------------------
                    Distance matrix (angstroms):
                    1          2          3          4          5
     1  N    0.000000
     2  C    1.455351   0.000000
     3  C    1.329699   2.431439   0.000000
     4  O    2.256381   2.773575   1.236841   0.000000
     5  C    2.415256   3.790924   1.520911   2.407245   0.000000
     6  N    3.591438   4.815148   2.398545   2.661892   1.450121
     7  C    4.727249   6.026946   3.645697   3.974094   2.431718
     8  C    3.098922   4.389053   2.492902   3.298094   1.531407
     9  C    5.950981   7.119164   4.750755   4.730670   3.792208
    10  O    5.101343   6.503938   4.243285   4.842710   2.820068
    11  C    7.237206   8.469815   6.108261   6.189656   5.001274
    12  O    6.027035   7.020184   4.745161   4.410006   4.122858
    13  C    8.432514   9.565990   7.235855   7.110676   6.285411
    14  H    1.007126   2.141800   2.016502   3.142199   2.519162
    15  H    2.099885   1.088474   2.765080   2.807452   4.193670
    16  H    2.068879   1.085036   3.298547   3.821890   4.476403
    17  H    2.100564   1.088512   2.746072   2.794110   4.139184
    18  H    2.591987   4.025160   2.144805   3.194400   1.089326
    19  H    3.793604   4.796042   2.483511   2.243405   2.126657
    20  H    2.889085   4.105760   2.775946   3.760320   2.160703
    21  H    4.083213   5.430359   3.437938   4.205069   2.156686
    22  H    3.436328   4.505355   2.689614   3.130738   2.163301
    23  H    7.469963   8.777174   6.373893   6.569152   5.109334
    24  H    7.228095   8.483349   6.218016   6.431745   5.092347
    25  H    8.643930   9.736005   7.383558   7.147040   6.485029
    26  H    9.329933  10.509880   8.172685   8.124080   7.134406
    27  H    8.433434   9.468836   7.248264   7.020057   6.472186
                    6          7          8          9         10
     6  N    0.000000
     7  C    1.326700   0.000000
     8  C    2.468859   3.175895   0.000000
     9  C    2.408872   1.541302   4.516711   0.000000
    10  O    2.272295   1.230638   3.314125   2.412791   0.000000
    11  C    3.741511   2.573248   5.604599   1.490260   2.838649
    12  O    2.676136   2.378635   4.905419   1.210411   3.475872
    13  C    4.916819   3.919779   6.910985   2.508123   4.345252
    14  H    3.872157   4.828463   3.018838   6.198060   4.955116
    15  H    4.981940   6.177855   5.066594   7.118580   6.755304
    16  H    5.641063   6.780220   4.950293   7.971192   7.109113
    17  H    5.093005   6.375645   4.482956   7.395080   6.945388
    18  H    2.073951   2.626428   2.158993   4.094623   2.620985
    19  H    1.011245   2.024284   3.097559   2.506395   3.158441
    20  H    3.400906   4.112756   1.089245   5.529504   4.075710
    21  H    2.690019   2.924642   1.088427   4.248474   2.775138
    22  H    2.765011   3.614511   1.089950   4.711441   4.007669
    23  H    3.993475   2.757830   5.426272   2.090527   2.716149
    24  H    3.975267   2.754042   5.842757   2.089691   2.726129
    25  H    5.088669   4.232145   6.959725   2.778445   4.791483
    26  H    5.824945   4.715151   7.704610   3.441077   4.915766
    27  H    5.074978   4.230225   7.294653   2.778528   4.797525
                   11         12         13         14         15
    11  C    0.000000
    12  O    2.395744   0.000000
    13  C    1.518404   2.800369   0.000000
    14  H    7.362821   6.458582   8.664402   0.000000
    15  H    8.474793   6.918142   9.471440   2.856556   0.000000
    16  H    9.263556   7.967631  10.428222   2.298969   1.772585
    17  H    8.805037   7.187163   9.842262   2.850223   1.773119
    18  H    5.104848   4.630343   6.484341   2.349727   4.392644
    19  H    3.981937   2.283688   4.905698   4.302971   4.828227
    20  H    6.573539   5.946425   7.927157   2.556610   4.942950
    21  H    5.109478   4.843792   6.466977   3.880440   6.075205
    22  H    5.898410   4.875161   7.060689   3.608357   5.181181
    23  H    1.093532   3.080771   2.179142   7.504876   8.911145
    24  H    1.093708   3.078433   2.179193   7.261782   8.449909
    25  H    2.161640   2.781438   1.089521   8.943019   9.679746
    26  H    2.148508   3.873629   1.088515   9.489653  10.430938
    27  H    2.161830   2.779918   1.089494   8.737634   9.251292
                   16         17         18         19         20
    16  H    0.000000
    17  H    1.773359   0.000000
    18  H    4.520710   4.603709   0.000000
    19  H    5.741153   4.952568   2.896361   0.000000
    20  H    4.451537   4.229726   2.457231   4.031131   0.000000
    21  H    5.951340   5.568215   2.520152   3.467991   1.770110
    22  H    5.178770   4.343234   3.059736   3.077281   1.776740
    23  H    9.528288   9.070526   5.215576   4.382724   6.371170
    24  H    9.201237   8.945774   4.966904   4.351500   6.715509
    25  H   10.647602   9.893823   6.846987   4.955811   8.019532
    26  H   11.334700  10.824473   7.237433   5.910088   8.689994
    27  H   10.352345   9.778822   6.657231   4.928784   8.300479
                   21         22         23         24         25
    21  H    0.000000
    22  H    1.775166   0.000000
    23  H    4.751251   5.728257   0.000000
    24  H    5.355966   6.308858   1.739331   0.000000
    25  H    6.528131   6.947489   2.535340   3.081953   0.000000
    26  H    7.158529   7.917449   2.509288   2.509945   1.766364
    27  H    6.987729   7.441349   3.081971   2.535068   1.765755
                   26         27
    26  H    0.000000
    27  H    1.766485   0.000000
 Stoichiometry    C8H14N2O3
 Framework group  C1[X(C8H14N2O3)]
 Deg. of freedom    75
 Full point group                 C1      NOp   1
 Largest Abelian subgroup         C1      NOp   1
 Largest concise Abelian subgroup C1      NOp   1
                         Standard orientation:                         
 ---------------------------------------------------------------------
 Center     Atomic      Atomic             Coordinates (Angstroms)
 Number     Number       Type             X           Y           Z
 ---------------------------------------------------------------------
      1          7           0        3.508057    0.059805   -0.525338
      2          6           0        4.678468   -0.805138   -0.517635
      3          6           0        2.346845   -0.335908   -0.012408
      4          8           0        2.169598   -1.463082    0.464914
      5          6           0        1.242270    0.709506    0.001505
      6          7           0       -0.021810    0.011572    0.135073
      7          6           0       -1.178580    0.576484   -0.185692
      8          6           0        1.476735    1.686146    1.157536
      9          6           0       -2.403698   -0.332992    0.032370
     10          8           0       -1.315545    1.716963   -0.627302
     11          6           0       -3.724717    0.241691   -0.349106
     12          8           0       -2.240317   -1.443512    0.485302
     13          6           0       -4.878378   -0.715915   -0.109091
     14          1           0        3.579198    0.993849   -0.895207
     15          1           0        4.489087   -1.706318   -1.097966
     16          1           0        5.504931   -0.260099   -0.961700
     17          1           0        4.937946   -1.086295    0.501424
     18          1           0        1.244011    1.250224   -0.944145
     19          1           0       -0.012429   -0.941952    0.471705
     20          1           0        2.389387    2.254774    0.983802
     21          1           0        0.640432    2.379332    1.226563
     22          1           0        1.567086    1.140079    2.096492
     23          1           0       -3.841620    1.173998    0.210313
     24          1           0       -3.650955    0.540983   -1.398478
     25          1           0       -4.945480   -0.987301    0.943954
     26          1           0       -5.816006   -0.247849   -0.403428
     27          1           0       -4.752868   -1.629254   -0.689657
 ---------------------------------------------------------------------
 Rotational constants (GHZ):           1.9808941           0.3305344           0.3013427
 Standard basis: 6-311+G(d,p) (5D, 7F)
 There are   383 symmetry adapted cartesian basis functions of A   symmetry.
 There are   370 symmetry adapted basis functions of A   symmetry.
   370 basis functions,   580 primitive gaussians,   383 cartesian basis functions
    50 alpha electrons       50 beta electrons
       nuclear repulsion energy       812.3454508403 Hartrees.
 NAtoms=   27 NActive=   27 NUniq=   27 SFac= 1.00D+00 NAtFMM=   60 NAOKFM=F Big=F
 Integral buffers will be    131072 words long.
 Raffenetti 2 integral format.
 Two-electron integral symmetry is turned on.
 ------------------------------------------------------------------------------
 Polarizable Continuum Model (PCM)
 =================================
 Model                : PCM.
 Atomic radii         : SMD-Coulomb.
 Polarization charges : Total charges.
 Charge compensation  : None.
 Solution method      : On-the-fly selection.
 Cavity type          : VdW (van der Waals Surface) (Alpha=1.000).
 Cavity algorithm     : GePol (No added spheres)
                        Default sphere list used, NSphG=   27.
                        Lebedev-Laikov grids with approx.  5.0 points / Ang**2.
                        Smoothing algorithm: York/Karplus (Gamma=1.0000).
                        Polarization charges: spherical gaussians, with
                                              point-specific exponents (IZeta= 3).
                        Self-potential: point-specific (ISelfS= 7).
                        Self-field    : sphere-specific E.n sum rule (ISelfD= 2).
 1st derivatives      : Analytical E(r).r(x)/FMM algorithm (CHGder, D1EAlg=3).
                        Cavity 1st derivative terms included.
 Solvent              : Water, Eps=  78.355300 Eps(inf)=   1.777849
 ------------------------------------------------------------------------------
 ------------------------------------------------------------------------------
 Atomic radii for non-electrostatic terms: SMD-CDS.
 ------------------------------------------------------------------------------
 Nuclear repulsion after PCM non-electrostatic terms =      812.3557320362 Hartrees.
 One-electron integrals computed using PRISM.
 NBasis=   370 RedAO= T EigKep=  4.93D-06  NBF=   370
 NBsUse=   370 1.00D-06 EigRej= -1.00D+00 NBFU=   370
 Initial guess from the checkpoint file:  "2KT_3D.chk"
 B after Tr=     0.000000   -0.000000   -0.000000
         Rot=    1.000000    0.000643    0.000065    0.000239 Ang=   0.08 deg.
 ExpMin= 4.38D-02 ExpMax= 8.59D+03 ExpMxC= 1.30D+03 IAcc=3 IRadAn=         5 AccDes= 0.00D+00
 Harris functional with IExCor= 1009 and IRadAn=       5 diagonalized for initial guess.
 HarFok:  IExCor= 1009 AccDes= 0.00D+00 IRadAn=         5 IDoV= 1 UseB2=F ITyADJ=14
 ICtDFT=  3500011 ScaDFX=  1.000000  1.000000  1.000000  1.000000
 FoFCou: FMM=F IPFlag=           0 FMFlag=      100000 FMFlg1=           0
         NFxFlg=           0 DoJE=T BraDBF=F KetDBF=T FulRan=T
         wScrn=  0.000000 ICntrl=       500 IOpCl=  0 I1Cent=   200000004 NGrid=           0
         NMat0=    1 NMatS0=      1 NMatT0=    0 NMatD0=    1 NMtDS0=    0 NMtDT0=    0
 Petite list used in FoFCou.
 Requested convergence on RMS density matrix=1.00D-08 within 128 cycles.
 Requested convergence on MAX density matrix=1.00D-06.
 Requested convergence on             energy=1.00D-06.
 No special actions if energy rises.
 Inv3:  Mode=1 IEnd=    11477808.
 Iteration    1 A*A^-1 deviation from unit magnitude is 1.02D-14 for   1932.
 Iteration    1 A*A^-1 deviation from orthogonality  is 3.72D-15 for   1932   1700.
 Iteration    1 A^-1*A deviation from unit magnitude is 1.02D-14 for   1932.
 Iteration    1 A^-1*A deviation from orthogonality  is 1.49D-15 for   1720     42.
 Error on total polarization charges =  0.05802
 SCF Done:  E(RM052X) =  -648.621186130     A.U. after   12 cycles
            NFock= 12  Conv=0.29D-08     -V/T= 2.0038
 SMD-CDS (non-electrostatic) energy       (kcal/mol) =       6.45
 (included in total energy above)
 D1PCM: PCM CHGder 1st derivatives, ID1Alg=3 FixD1E=F DoIter=F DoCFld=F I1PDM=0.
 Calling FoFJK, ICntrl=      2127 FMM=F ISym2X=0 I1Cent= 0 IOpClX= 0 NMat=1 NMatS=1 NMatT=0.
 ***** Axes restored to original set *****
 -------------------------------------------------------------------
 Center     Atomic                   Forces (Hartrees/Bohr)
 Number     Number              X              Y              Z
 -------------------------------------------------------------------
      1        7           0.000574257   -0.000920773    0.000161046
      2        6           0.000158759    0.000162410   -0.000051891
      3        6          -0.000507552    0.000705469    0.000149979
      4        8           0.000020004   -0.000419287   -0.000033886
      5        6          -0.000320412   -0.000267586   -0.000467301
      6        7           0.000222386    0.001475117    0.000415270
      7        6          -0.000538974   -0.000608450    0.000002612
      8        6          -0.000103370    0.000047563    0.000184659
      9        6           0.000319078    0.000072460    0.000599326
     10        8          -0.000195145    0.000490462   -0.000114623
     11        6           0.000041854    0.000115224   -0.000185418
     12        8           0.000083337   -0.000406327   -0.000172798
     13        6          -0.000161645   -0.000120532   -0.000013994
     14        1          -0.000242062    0.000718789   -0.000012848
     15        1          -0.000048438   -0.000047957   -0.000030198
     16        1          -0.000048816   -0.000079385    0.000059153
     17        1          -0.000054368   -0.000019065    0.000007554
     18        1           0.000181213    0.000059145   -0.000063439
     19        1           0.000431900   -0.000772676   -0.000479890
     20        1           0.000120200   -0.000053654   -0.000201004
     21        1           0.000086968    0.000079809    0.000175406
     22        1           0.000059928   -0.000041909    0.000042449
     23        1          -0.000042538   -0.000104921    0.000038554
     24        1          -0.000099888   -0.000150808   -0.000009631
     25        1           0.000031503    0.000020217    0.000020907
     26        1           0.000001820    0.000051882    0.000001805
     27        1           0.000030002    0.000014781   -0.000021797
 -------------------------------------------------------------------
 Cartesian Forces:  Max     0.001475117 RMS     0.000325368

 GradGradGradGradGradGradGradGradGradGradGradGradGradGradGradGradGradGrad
 Berny optimization.
 Using GEDIIS/GDIIS optimizer.
 FormGI is forming the generalized inverse of G from B-inverse, IUseBI=4.
 Internal  Forces:  Max     0.000769300 RMS     0.000193302
 Search for a local minimum.
 Step number   9 out of a maximum of  135
 All quantities printed in internal units (Hartrees-Bohrs-Radians)
 Mixed Optimization -- En-DIIS/RFO-DIIS
 Swapping is turned off.
 Update second derivatives using D2CorX and points    4    5    6    7    8
                                                      9
 DE= -4.62D-05 DEPred=-3.52D-05 R= 1.31D+00
 TightC=F SS=  1.41D+00  RLast= 7.39D-02 DXNew= 9.1481D-01 2.2155D-01
 Trust test= 1.31D+00 RLast= 7.39D-02 DXMaxT set to 5.44D-01
 ITU=  1  1 -1  1  1  0  1  1  0
     Eigenvalues ---    0.00107   0.00356   0.00370   0.00619   0.00678
     Eigenvalues ---    0.00833   0.00886   0.01413   0.01423   0.02162
     Eigenvalues ---    0.02328   0.02447   0.03080   0.04087   0.04371
     Eigenvalues ---    0.04849   0.04986   0.05307   0.05555   0.05657
     Eigenvalues ---    0.05720   0.05752   0.06475   0.07405   0.07655
     Eigenvalues ---    0.09051   0.13158   0.15437   0.15700   0.15985
     Eigenvalues ---    0.15996   0.16000   0.16002   0.16009   0.16021
     Eigenvalues ---    0.16066   0.16073   0.16355   0.17164   0.17488
     Eigenvalues ---    0.20207   0.21951   0.22000   0.24531   0.24985
     Eigenvalues ---    0.25067   0.25367   0.26755   0.27485   0.29542
     Eigenvalues ---    0.30051   0.32135   0.32609   0.33690   0.34787
     Eigenvalues ---    0.34807   0.34810   0.34811   0.34815   0.34816
     Eigenvalues ---    0.34818   0.34824   0.34833   0.34863   0.34909
     Eigenvalues ---    0.34967   0.36394   0.36908   0.53323   0.54429
     Eigenvalues ---    0.56230   0.57296   0.97675   0.98333   1.01538
 En-DIIS/RFO-DIIS/Sim-DIIS IScMMF=       -3 using points:     9    8    7    6    5    4    3
 RFO step:  Lambda=-1.56202156D-04.
 DidBck=T Rises=F RFO-DIIS coefs:   -1.55012    0.96418    0.75582    2.44095   -2.00000
                  RFO-DIIS coefs:   -0.16660    0.55577
 Iteration  1 RMS(Cart)=  0.02693386 RMS(Int)=  0.00054989
 Iteration  2 RMS(Cart)=  0.00074990 RMS(Int)=  0.00005481
 Iteration  3 RMS(Cart)=  0.00000050 RMS(Int)=  0.00005481
 Variable       Old X    -DE/DX   Delta X   Delta X   Delta X     New X
                                 (Linear)    (Quad)   (Total)
    R1        2.75022  -0.00003   0.00093  -0.00089   0.00004   2.75025
    R2        2.51277  -0.00031   0.00730  -0.00724   0.00006   2.51282
    R3        1.90319   0.00075  -0.00315   0.00503   0.00188   1.90507
    R4        2.05692  -0.00001  -0.00010   0.00007  -0.00003   2.05689
    R5        2.05042   0.00001  -0.00045   0.00042  -0.00003   2.05039
    R6        2.05699   0.00001  -0.00039   0.00033  -0.00006   2.05693
    R7        2.33729   0.00041  -0.00310   0.00322   0.00012   2.33741
    R8        2.87410   0.00012   0.00784  -0.00660   0.00124   2.87535
    R9        2.74033   0.00007  -0.00288   0.00310   0.00021   2.74055
   R10        2.89394  -0.00021   0.00886  -0.00922  -0.00036   2.89358
   R11        2.05853   0.00001  -0.00116   0.00153   0.00037   2.05890
   R12        2.50710  -0.00077   0.00799  -0.00953  -0.00154   2.50556
   R13        1.91098   0.00074  -0.00350   0.00537   0.00187   1.91285
   R14        2.91264   0.00045  -0.01283   0.01360   0.00078   2.91342
   R15        2.32557   0.00049  -0.00062   0.00124   0.00063   2.32620
   R16        2.05837  -0.00014  -0.00104   0.00058  -0.00046   2.05792
   R17        2.05683   0.00003  -0.00027   0.00026  -0.00001   2.05682
   R18        2.05971   0.00002  -0.00048   0.00051   0.00002   2.05973
   R19        2.81618  -0.00024   0.00666  -0.00691  -0.00025   2.81593
   R20        2.28735   0.00038   0.00124  -0.00060   0.00064   2.28798
   R21        2.86937  -0.00007   0.00776  -0.00749   0.00027   2.86964
   R22        2.06648  -0.00008  -0.00103   0.00056  -0.00047   2.06600
   R23        2.06681  -0.00011  -0.00123   0.00080  -0.00043   2.06638
   R24        2.05890  -0.00003  -0.00025   0.00009  -0.00017   2.05873
   R25        2.05700   0.00003  -0.00069   0.00074   0.00005   2.05704
   R26        2.05885  -0.00003  -0.00031   0.00016  -0.00016   2.05869
    A1        2.12163  -0.00009  -0.00774   0.00634  -0.00131   2.12033
    A2        2.09016  -0.00010  -0.00058  -0.00065  -0.00114   2.08902
    A3        2.07072   0.00019   0.00875  -0.00610   0.00274   2.07345
    A4        1.92763   0.00004   0.00019   0.00068   0.00087   1.92850
    A5        1.88794   0.00012  -0.00315   0.00381   0.00066   1.88860
    A6        1.92855   0.00005   0.00009   0.00016   0.00026   1.92881
    A7        1.90732  -0.00008   0.00130  -0.00166  -0.00036   1.90696
    A8        1.90368  -0.00006   0.00088  -0.00167  -0.00080   1.90288
    A9        1.90850  -0.00007   0.00069  -0.00133  -0.00064   1.90787
   A10        2.14745  -0.00018  -0.01326   0.01162  -0.00162   2.14584
   A11        2.01884   0.00028   0.00697  -0.00679   0.00020   2.01904
   A12        2.11625  -0.00009   0.00653  -0.00519   0.00136   2.11761
   A13        1.87875   0.00007   0.00332  -0.00301   0.00028   1.87903
   A14        1.91141   0.00036   0.01815  -0.00853   0.00964   1.92106
   A15        1.90931  -0.00015   0.00202  -0.00766  -0.00559   1.90372
   A16        1.95074  -0.00029  -0.00832   0.00677  -0.00135   1.94939
   A17        1.89680  -0.00005  -0.01267   0.00986  -0.00277   1.89403
   A18        1.91613   0.00006  -0.00294   0.00228  -0.00047   1.91566
   A19        2.13276   0.00008  -0.00789   0.00810   0.00023   2.13299
   A20        2.06735   0.00035  -0.00013   0.00292   0.00280   2.07015
   A21        2.08297  -0.00042   0.00790  -0.01095  -0.00303   2.07994
   A22        1.99061  -0.00013   0.00379  -0.00497  -0.00121   1.98940
   A23        2.18757  -0.00020   0.00051  -0.00107  -0.00058   2.18699
   A24        2.10499   0.00033  -0.00435   0.00596   0.00159   2.10657
   A25        1.91857   0.00039   0.01041  -0.00528   0.00512   1.92369
   A26        1.91388  -0.00031   0.00275  -0.00577  -0.00301   1.91087
   A27        1.92143  -0.00013  -0.00249   0.00190  -0.00056   1.92087
   A28        1.89804  -0.00003  -0.00552   0.00404  -0.00150   1.89654
   A29        1.90656  -0.00007  -0.00287   0.00244  -0.00042   1.90614
   A30        1.90512   0.00015  -0.00248   0.00278   0.00033   1.90546
   A31        2.02732  -0.00018   0.00316  -0.00403  -0.00074   2.02658
   A32        2.07948   0.00022   0.00238  -0.00143   0.00108   2.08056
   A33        2.17638  -0.00004  -0.00597   0.00551  -0.00033   2.17605
   A34        1.97125   0.00008  -0.00509   0.00498  -0.00010   1.97115
   A35        1.86772  -0.00005   0.00321  -0.00384  -0.00064   1.86708
   A36        1.86643  -0.00010   0.00471  -0.00553  -0.00083   1.86560
   A37        1.95584  -0.00000  -0.00629   0.00614  -0.00014   1.95570
   A38        1.95572   0.00002  -0.00539   0.00535  -0.00004   1.95568
   A39        1.83873   0.00005   0.01066  -0.00882   0.00182   1.84055
   A40        1.93549   0.00006  -0.00027   0.00072   0.00045   1.93594
   A41        1.91828  -0.00009  -0.00406   0.00288  -0.00118   1.91710
   A42        1.93578   0.00003  -0.00006   0.00056   0.00050   1.93629
   A43        1.89168   0.00001   0.00152  -0.00152   0.00000   1.89168
   A44        1.88948  -0.00002   0.00132  -0.00108   0.00025   1.88973
   A45        1.89191   0.00001   0.00171  -0.00173  -0.00002   1.89188
    D1        1.08116  -0.00004  -0.01115   0.00523  -0.00598   1.07519
    D2       -3.11538  -0.00004  -0.01140   0.00595  -0.00550  -3.12088
    D3       -1.02676  -0.00002  -0.01244   0.00677  -0.00572  -1.03248
    D4       -2.10042  -0.00001   0.01091  -0.00726   0.00370  -2.09673
    D5       -0.01379  -0.00002   0.01066  -0.00654   0.00417  -0.00961
    D6        2.07483   0.00000   0.00962  -0.00572   0.00395   2.07879
    D7       -0.03766  -0.00004   0.01694  -0.00399   0.01276  -0.02491
    D8        3.06601   0.00010   0.02575  -0.01477   0.01103   3.07703
    D9       -3.13969  -0.00006  -0.00496   0.00825   0.00325  -3.13644
   D10       -0.03602   0.00008   0.00386  -0.00253   0.00152  -0.03450
   D11        2.79805  -0.00020   0.10959  -0.05536   0.05441   2.85245
   D12       -1.36088  -0.00030   0.11273  -0.05405   0.05869  -1.30219
   D13        0.73992  -0.00009   0.12175  -0.06123   0.06058   0.80050
   D14       -0.38073  -0.00007   0.11816  -0.06554   0.05264  -0.32809
   D15        1.74353  -0.00017   0.12130  -0.06422   0.05693   1.80045
   D16       -2.43885   0.00004   0.13032  -0.07140   0.05881  -2.38005
   D17       -2.80894   0.00023   0.01485   0.00477   0.01967  -2.78927
   D18        0.31664   0.00035   0.01006   0.00998   0.02006   0.33669
   D19        1.37464  -0.00008  -0.00472   0.01317   0.00839   1.38304
   D20       -1.78297   0.00004  -0.00951   0.01839   0.00878  -1.77418
   D21       -0.74274   0.00006   0.01228  -0.00064   0.01170  -0.73105
   D22        2.38283   0.00018   0.00749   0.00457   0.01209   2.39492
   D23        1.14625  -0.00002   0.00979  -0.01961  -0.00987   1.13639
   D24       -3.05112  -0.00001   0.01105  -0.02147  -0.01043  -3.06155
   D25       -0.95481  -0.00011   0.00826  -0.02048  -0.01226  -0.96707
   D26       -3.05655   0.00011   0.02067  -0.02470  -0.00402  -3.06056
   D27       -0.97073   0.00012   0.02193  -0.02656  -0.00458  -0.97532
   D28        1.12558   0.00003   0.01914  -0.02557  -0.00641   1.11917
   D29       -0.95039  -0.00010  -0.00240  -0.00630  -0.00870  -0.95909
   D30        1.13543  -0.00009  -0.00114  -0.00815  -0.00927   1.12616
   D31       -3.05145  -0.00018  -0.00394  -0.00716  -0.01110  -3.06254
   D32       -3.13971  -0.00006   0.00415  -0.01398  -0.00981   3.13367
   D33        0.00790  -0.00004   0.00607   0.00048   0.00659   0.01448
   D34        0.01804  -0.00019   0.00915  -0.01937  -0.01025   0.00779
   D35       -3.11754  -0.00017   0.01108  -0.00491   0.00614  -3.11140
   D36       -3.11280  -0.00007  -0.00134   0.00484   0.00354  -3.10926
   D37        0.02326   0.00006  -0.00912   0.01455   0.00538   0.02864
   D38        0.02309  -0.00009  -0.00317  -0.00890  -0.01202   0.01106
   D39       -3.12404   0.00004  -0.01095   0.00081  -0.01018  -3.13422
   D40        3.13800   0.00006   0.00018   0.00059   0.00080   3.13880
   D41       -0.98476   0.00007  -0.00878   0.00888   0.00010  -0.98466
   D42        0.97864   0.00005   0.00693  -0.00547   0.00151   0.98015
   D43        0.00228  -0.00009   0.00856  -0.00969  -0.00116   0.00113
   D44        2.16271  -0.00008  -0.00040  -0.00141  -0.00185   2.16086
   D45       -2.15707  -0.00009   0.01532  -0.01575  -0.00045  -2.15752
   D46        1.05022   0.00003   0.00136  -0.00057   0.00078   1.05100
   D47        3.14154   0.00002   0.00045  -0.00014   0.00031  -3.14134
   D48       -1.04985  -0.00001  -0.00010  -0.00007  -0.00017  -1.05002
   D49       -1.06087   0.00005   0.00549  -0.00370   0.00179  -1.05907
   D50        1.03046   0.00003   0.00458  -0.00327   0.00132   1.03178
   D51        3.12225   0.00001   0.00404  -0.00320   0.00084   3.12310
   D52       -3.12367  -0.00003  -0.00016  -0.00024  -0.00040  -3.12407
   D53       -1.03234  -0.00005  -0.00107   0.00019  -0.00088  -1.03322
   D54        1.05945  -0.00007  -0.00161   0.00026  -0.00135   1.05810
         Item               Value     Threshold  Converged?
 Maximum Force            0.000769     0.000450     NO 
 RMS     Force            0.000193     0.000300     YES
 Maximum Displacement     0.139992     0.001800     NO 
 RMS     Displacement     0.027002     0.001200     NO 
 Predicted change in Energy=-6.336209D-05
 GradGradGradGradGradGradGradGradGradGradGradGradGradGradGradGradGradGrad

                          Input orientation:                          
 ---------------------------------------------------------------------
 Center     Atomic      Atomic             Coordinates (Angstroms)
 Number     Number       Type             X           Y           Z
 ---------------------------------------------------------------------
      1          7           0       -3.488537    1.225139    0.875365
      2          6           0       -4.570806    0.390514    1.375568
      3          6           0       -2.316805    0.705078    0.522149
      4          8           0       -2.060181   -0.501189    0.616985
      5          6           0       -1.310708    1.684256   -0.064495
      6          7           0       -0.005212    1.054419   -0.017958
      7          6           0        1.119518    1.753779   -0.080053
      8          6           0       -1.710172    2.053659   -1.495784
      9          6           0        2.397037    0.894166   -0.003294
     10          8           0        1.191170    2.979610   -0.166603
     11          6           0        3.689145    1.636080   -0.025726
     12          8           0        2.295253   -0.309848    0.073527
     13          6           0        4.898390    0.721283    0.057126
     14          1           0       -3.631961    2.217141    0.767356
     15          1           0       -4.272422   -0.109941    2.294946
     16          1           0       -5.425584    1.027970    1.576239
     17          1           0       -4.846732   -0.359613    0.636674
     18          1           0       -1.284533    2.581035    0.553699
     19          1           0        0.044266    0.048014    0.078580
     20          1           0       -2.653980    2.596939   -1.494809
     21          1           0       -0.942967    2.689083   -1.934301
     22          1           0       -1.815956    1.151949   -2.098898
     23          1           0        3.693925    2.241355   -0.936157
     24          1           0        3.658721    2.352160    0.800109
     25          1           0        4.919953    0.027934   -0.782914
     26          1           0        5.811624    1.313334    0.037166
     27          1           0        4.885053    0.140795    0.978903
 ---------------------------------------------------------------------
                    Distance matrix (angstroms):
                    1          2          3          4          5
     1  N    0.000000
     2  C    1.455372   0.000000
     3  C    1.329730   2.430596   0.000000
     4  O    2.255476   2.770166   1.236904   0.000000
     5  C    2.416002   3.791542   1.521569   2.408796   0.000000
     6  N    3.600101   4.819475   2.399420   2.654424   1.450235
     7  C    4.735658   6.029686   3.642902   3.959953   2.431270
     8  C    3.077560   4.381089   2.501744   3.333699   1.531215
     9  C    5.959997   7.120798   4.746804   4.711534   3.791485
    10  O    5.105245   6.502467   4.237188   4.827138   2.819177
    11  C    7.245685   8.470056   6.102324   6.167312   5.000235
    12  O    6.037496   7.023432   4.743671   4.393377   4.122919
    13  C    8.441797   9.566263   7.230183   7.087284   6.284505
    14  H    1.008119   2.141943   2.018934   3.143632   2.522728
    15  H    2.100506   1.088460   2.762518   2.804039   4.190210
    16  H    2.069360   1.085018   3.298465   3.818957   4.478272
    17  H    2.100739   1.088480   2.747219   2.790214   4.143972
    18  H    2.607596   4.034035   2.141447   3.178953   1.089522
    19  H    3.808042   4.806077   2.490611   2.240581   2.129252
    20  H    2.862874   4.096534   2.785847   3.796139   2.164063
    21  H    4.064146   5.422165   3.443523   4.234982   2.154318
    22  H    3.413081   4.498988   2.705629   3.188814   2.162735
    23  H    7.476769   8.779264   6.373043   6.560757   5.110431
    24  H    7.235961   8.479642   6.204599   6.393823   5.088109
    25  H    8.653664   9.739868   7.384604   7.138765   6.486961
    26  H    9.338273  10.508937   8.165570   8.099012   7.132708
    27  H    8.444141   9.467469   7.238356   6.984225   6.469807
                    6          7          8          9         10
     6  N    0.000000
     7  C    1.325887   0.000000
     8  C    2.467658   3.178264   0.000000
     9  C    2.407633   1.541714   4.521185   0.000000
    10  O    2.271516   1.230970   3.322934   2.414511   0.000000
    11  C    3.739874   2.572894   5.611422   1.490128   2.839859
    12  O    2.676142   2.380021   4.908394   1.210748   3.478103
    13  C    4.915479   3.919789   6.918081   2.508049   4.346674
    14  H    3.888695   4.848645   2.973517   6.220368   4.971542
    15  H    4.991427   6.179570   5.061218   7.125435   6.742061
    16  H    5.650008   6.790321   4.928858   7.981618   7.115323
    17  H    5.086093   6.369949   4.495471   7.379275   6.946360
    18  H    2.072199   2.620201   2.158627   4.087753   2.608985
    19  H    1.012234   2.022613   3.095042   2.501640   3.157492
    20  H    3.402416   4.117250   1.089004   5.535055   4.086043
    21  H    2.687728   2.926922   1.088423   4.255131   2.786342
    22  H    2.760184   3.613162   1.089963   4.712464   4.014588
    23  H    3.991932   2.756486   5.436237   2.089754   2.720481
    24  H    3.972124   2.753234   5.846814   2.088792   2.723423
    25  H    5.088819   4.232714   6.969240   2.779078   4.795421
    26  H    5.822856   4.714190   7.712031   3.440457   4.915953
    27  H    5.073769   4.231118   7.299322   2.778939   4.797481
                   11         12         13         14         15
    11  C    0.000000
    12  O    2.395709   0.000000
    13  C    1.518550   2.799969   0.000000
    14  H    7.386826   6.480659   8.689587   0.000000
    15  H    8.474706   6.936067   9.476422   2.856402   0.000000
    16  H    9.274393   7.978673  10.439646   2.299022   1.772333
    17  H    8.791060   7.164325   9.821996   2.851737   1.772579
    18  H    5.095698   4.626299   6.475632   2.385055   4.381869
    19  H    3.977181   2.279262   4.900640   4.323676   4.855000
    20  H    6.581542   5.950126   7.935042   2.493608   4.930395
    21  H    5.119368   4.848817   6.477613   3.840881   6.066823
    22  H    5.902420   4.874251   7.065151   3.556391   5.189649
    23  H    1.093282   3.079672   2.178983   7.521380   8.912424
    24  H    1.093481   3.077866   2.179120   7.292006   8.437980
    25  H    2.162027   2.781481   1.089434   8.962768   9.694947
    26  H    2.147798   3.873100   1.088539   9.514796  10.431264
    27  H    2.162256   2.780260   1.089411   8.769007   9.254954
                   16         17         18         19         20
    16  H    0.000000
    17  H    1.772918   0.000000
    18  H    4.539372   4.619908   0.000000
    19  H    5.755220   4.939584   2.899593   0.000000
    20  H    4.424340   4.253536   2.464147   4.031514   0.000000
    21  H    5.931024   5.580666   2.513659   3.464328   1.768958
    22  H    5.152806   4.353593   3.059569   3.069285   1.776290
    23  H    9.536765   9.065409   5.207696   4.377265   6.382354
    24  H    9.213059   8.928782   4.954681   4.346720   6.721366
    25  H   10.658134   9.876920   6.841090   4.951252   8.029387
    26  H   11.345705  10.805494   7.226985   5.904673   8.698336
    27  H   10.365960   9.750649   6.648260   4.924673   8.305957
                   21         22         23         24         25
    21  H    0.000000
    22  H    1.775383   0.000000
    23  H    4.764191   5.735640   0.000000
    24  H    5.363398   6.310058   1.740155   0.000000
    25  H    6.540737   6.954689   2.534928   3.081996   0.000000
    26  H    7.169648   7.922675   2.508631   2.509230   1.766313
    27  H    6.996166   7.443037   3.081978   2.534955   1.765773
                   26         27
    26  H    0.000000
    27  H    1.766423   0.000000
 Stoichiometry    C8H14N2O3
 Framework group  C1[X(C8H14N2O3)]
 Deg. of freedom    75
 Full point group                 C1      NOp   1
 Largest Abelian subgroup         C1      NOp   1
 Largest concise Abelian subgroup C1      NOp   1
                         Standard orientation:                         
 ---------------------------------------------------------------------
 Center     Atomic      Atomic             Coordinates (Angstroms)
 Number     Number       Type             X           Y           Z
 ---------------------------------------------------------------------
      1          7           0        3.518980    0.067481   -0.491238
      2          6           0        4.680124   -0.809902   -0.498489
      3          6           0        2.342435   -0.341416   -0.025701
      4          8           0        2.149268   -1.485594    0.402639
      5          6           0        1.242327    0.709415    0.000532
      6          7           0       -0.023683    0.017424    0.147320
      7          6           0       -1.178673    0.579660   -0.181109
      8          6           0        1.484668    1.695299    1.146797
      9          6           0       -2.403876   -0.329272    0.041603
     10          8           0       -1.311975    1.710922   -0.647761
     11          6           0       -3.723315    0.240204   -0.352427
     12          8           0       -2.242512   -1.434271    0.509416
     13          6           0       -4.877626   -0.715285   -0.106258
     14          1           0        3.607694    1.015932   -0.821202
     15          1           0        4.494426   -1.682653   -1.121842
     16          1           0        5.521591   -0.255366   -0.900593
     17          1           0        4.915731   -1.139127    0.511901
     18          1           0        1.236939    1.243060   -0.949338
     19          1           0       -0.019464   -0.931273    0.500272
     20          1           0        2.399434    2.259411    0.970989
     21          1           0        0.651501    2.392990    1.207838
     22          1           0        1.570892    1.157194    2.090739
     23          1           0       -3.842786    1.178277    0.196218
     24          1           0       -3.644396    0.526187   -1.404893
     25          1           0       -4.950107   -0.973983    0.949530
     26          1           0       -5.813538   -0.250300   -0.410850
     27          1           0       -4.749633   -1.635355   -0.675386
 ---------------------------------------------------------------------
 Rotational constants (GHZ):           1.9829453           0.3308182           0.3011818
 Standard basis: 6-311+G(d,p) (5D, 7F)
 There are   383 symmetry adapted cartesian basis functions of A   symmetry.
 There are   370 symmetry adapted basis functions of A   symmetry.
   370 basis functions,   580 primitive gaussians,   383 cartesian basis functions
    50 alpha electrons       50 beta electrons
       nuclear repulsion energy       812.3493211295 Hartrees.
 NAtoms=   27 NActive=   27 NUniq=   27 SFac= 1.00D+00 NAtFMM=   60 NAOKFM=F Big=F
 Integral buffers will be    131072 words long.
 Raffenetti 2 integral format.
 Two-electron integral symmetry is turned on.
 ------------------------------------------------------------------------------
 Polarizable Continuum Model (PCM)
 =================================
 Model                : PCM.
 Atomic radii         : SMD-Coulomb.
 Polarization charges : Total charges.
 Charge compensation  : None.
 Solution method      : On-the-fly selection.
 Cavity type          : VdW (van der Waals Surface) (Alpha=1.000).
 Cavity algorithm     : GePol (No added spheres)
                        Default sphere list used, NSphG=   27.
                        Lebedev-Laikov grids with approx.  5.0 points / Ang**2.
                        Smoothing algorithm: York/Karplus (Gamma=1.0000).
                        Polarization charges: spherical gaussians, with
                                              point-specific exponents (IZeta= 3).
                        Self-potential: point-specific (ISelfS= 7).
                        Self-field    : sphere-specific E.n sum rule (ISelfD= 2).
 1st derivatives      : Analytical E(r).r(x)/FMM algorithm (CHGder, D1EAlg=3).
                        Cavity 1st derivative terms included.
 Solvent              : Water, Eps=  78.355300 Eps(inf)=   1.777849
 ------------------------------------------------------------------------------
 ------------------------------------------------------------------------------
 Atomic radii for non-electrostatic terms: SMD-CDS.
 ------------------------------------------------------------------------------
 Nuclear repulsion after PCM non-electrostatic terms =      812.3596228225 Hartrees.
 One-electron integrals computed using PRISM.
 NBasis=   370 RedAO= T EigKep=  4.92D-06  NBF=   370
 NBsUse=   370 1.00D-06 EigRej= -1.00D+00 NBFU=   370
 Initial guess from the checkpoint file:  "2KT_3D.chk"
 B after Tr=     0.000000    0.000000   -0.000000
         Rot=    1.000000    0.000532    0.000150    0.000515 Ang=   0.09 deg.
 ExpMin= 4.38D-02 ExpMax= 8.59D+03 ExpMxC= 1.30D+03 IAcc=3 IRadAn=         5 AccDes= 0.00D+00
 Harris functional with IExCor= 1009 and IRadAn=       5 diagonalized for initial guess.
 HarFok:  IExCor= 1009 AccDes= 0.00D+00 IRadAn=         5 IDoV= 1 UseB2=F ITyADJ=14
 ICtDFT=  3500011 ScaDFX=  1.000000  1.000000  1.000000  1.000000
 FoFCou: FMM=F IPFlag=           0 FMFlag=      100000 FMFlg1=           0
         NFxFlg=           0 DoJE=T BraDBF=F KetDBF=T FulRan=T
         wScrn=  0.000000 ICntrl=       500 IOpCl=  0 I1Cent=   200000004 NGrid=           0
         NMat0=    1 NMatS0=      1 NMatT0=    0 NMatD0=    1 NMtDS0=    0 NMtDT0=    0
 Petite list used in FoFCou.
 Requested convergence on RMS density matrix=1.00D-08 within 128 cycles.
 Requested convergence on MAX density matrix=1.00D-06.
 Requested convergence on             energy=1.00D-06.
 No special actions if energy rises.
 Inv3:  Mode=1 IEnd=    11513043.
 Iteration    1 A*A^-1 deviation from unit magnitude is 6.44D-15 for    233.
 Iteration    1 A*A^-1 deviation from orthogonality  is 3.96D-15 for   1762    222.
 Iteration    1 A^-1*A deviation from unit magnitude is 4.77D-15 for    230.
 Iteration    1 A^-1*A deviation from orthogonality  is 1.67D-15 for   1959   1721.
 Error on total polarization charges =  0.05801
 SCF Done:  E(RM052X) =  -648.621139913     A.U. after   12 cycles
            NFock= 12  Conv=0.59D-08     -V/T= 2.0038
 SMD-CDS (non-electrostatic) energy       (kcal/mol) =       6.46
 (included in total energy above)
 D1PCM: PCM CHGder 1st derivatives, ID1Alg=3 FixD1E=F DoIter=F DoCFld=F I1PDM=0.
 Calling FoFJK, ICntrl=      2127 FMM=F ISym2X=0 I1Cent= 0 IOpClX= 0 NMat=1 NMatS=1 NMatT=0.
 ***** Axes restored to original set *****
 -------------------------------------------------------------------
 Center     Atomic                   Forces (Hartrees/Bohr)
 Number     Number              X              Y              Z
 -------------------------------------------------------------------
      1        7           0.000296211    0.000047024    0.000616004
      2        6           0.000005414    0.000060609   -0.000087143
      3        6          -0.000705879    0.000090123   -0.001240493
      4        8           0.000104553   -0.000188271    0.000295940
      5        6          -0.000104546   -0.000110911    0.000186764
      6        7          -0.000154227    0.000272250   -0.000180122
      7        6          -0.000342589   -0.000050564    0.001914604
      8        6           0.000022348   -0.000240027    0.000167142
      9        6           0.000475227   -0.000212018   -0.000361205
     10        8           0.000181279    0.000173234   -0.000839143
     11        6           0.000005082   -0.000342452    0.000069141
     12        8          -0.000099177    0.000222591   -0.000078887
     13        6          -0.000104565    0.000136461   -0.000026524
     14        1           0.000096645   -0.000188959    0.000032008
     15        1           0.000034194    0.000001003   -0.000007908
     16        1          -0.000017026    0.000020880    0.000027739
     17        1          -0.000038851   -0.000011179   -0.000060702
     18        1           0.000162455    0.000098598   -0.000175115
     19        1           0.000015204    0.000118730   -0.000354070
     20        1           0.000018275   -0.000015683    0.000080735
     21        1           0.000127969    0.000017223    0.000043421
     22        1           0.000008884   -0.000009314    0.000012633
     23        1          -0.000043996    0.000082119   -0.000038090
     24        1           0.000011771    0.000049712   -0.000004860
     25        1          -0.000006424   -0.000003788   -0.000019163
     26        1           0.000056115   -0.000019489    0.000010397
     27        1          -0.000004344    0.000002099    0.000016898
 -------------------------------------------------------------------
 Cartesian Forces:  Max     0.001914604 RMS     0.000322221

 GradGradGradGradGradGradGradGradGradGradGradGradGradGradGradGradGradGrad
 Berny optimization.
 Using GEDIIS/GDIIS optimizer.
 FormGI is forming the generalized inverse of G from B-inverse, IUseBI=4.
 Internal  Forces:  Max     0.000513306 RMS     0.000151576
 Search for a local minimum.
 Step number  10 out of a maximum of  135
 All quantities printed in internal units (Hartrees-Bohrs-Radians)
 Mixed Optimization -- En-DIIS/RFO-DIIS
 Swapping is turned off.
 Update second derivatives using D2CorX and points    3    4    5    6    7
                                                      8    9   10
 DE=  4.62D-05 DEPred=-6.34D-05 R=-7.29D-01
 Trust test=-7.29D-01 RLast= 1.51D-01 DXMaxT set to 2.72D-01
 ITU= -1  1  1 -1  1  1  0  1  1  0
     Eigenvalues ---    0.00048   0.00345   0.00370   0.00672   0.00699
     Eigenvalues ---    0.00831   0.00885   0.01352   0.01440   0.02311
     Eigenvalues ---    0.02330   0.02998   0.03902   0.04164   0.04284
     Eigenvalues ---    0.04970   0.05007   0.05450   0.05548   0.05663
     Eigenvalues ---    0.05728   0.05770   0.06596   0.07399   0.07647
     Eigenvalues ---    0.09075   0.13158   0.15577   0.15929   0.15982
     Eigenvalues ---    0.15997   0.15999   0.16001   0.16010   0.16026
     Eigenvalues ---    0.16064   0.16155   0.16446   0.17223   0.17781
     Eigenvalues ---    0.20359   0.21930   0.22010   0.24651   0.24989
     Eigenvalues ---    0.25170   0.25664   0.26443   0.27522   0.29518
     Eigenvalues ---    0.30117   0.32148   0.32991   0.34081   0.34783
     Eigenvalues ---    0.34807   0.34809   0.34812   0.34815   0.34818
     Eigenvalues ---    0.34819   0.34823   0.34833   0.34865   0.34938
     Eigenvalues ---    0.35127   0.36388   0.37219   0.53345   0.54057
     Eigenvalues ---    0.55436   0.57941   0.97798   0.98464   1.01154
 En-DIIS/RFO-DIIS/Sim-DIIS IScMMF=       -3 using points:    10    9    8    7    6    5    4    3
 RFO step:  Lambda=-2.23147500D-04.
 EnCoef did   100 forward-backward iterations
 EnCoef did   100 forward-backward iterations
 EnCoef did   100 forward-backward iterations
 EnCoef did   100 forward-backward iterations
 EnCoef did   100 forward-backward iterations
 EnCoef did   100 forward-backward iterations
 DidBck=T Rises=T En-DIIS coefs:    0.21337    0.78663    0.00000    0.00000    0.00000
                  En-DIIS coefs:    0.00000    0.00000    0.00000
 Iteration  1 RMS(Cart)=  0.10157213 RMS(Int)=  0.00809708
 Iteration  2 RMS(Cart)=  0.01152475 RMS(Int)=  0.00009473
 Iteration  3 RMS(Cart)=  0.00013851 RMS(Int)=  0.00004105
 Iteration  4 RMS(Cart)=  0.00000002 RMS(Int)=  0.00004105
 Variable       Old X    -DE/DX   Delta X   Delta X   Delta X     New X
                                 (Linear)    (Quad)   (Total)
    R1        2.75025  -0.00008  -0.00003   0.00025   0.00022   2.75047
    R2        2.51282  -0.00021  -0.00005  -0.00042  -0.00047   2.51235
    R3        1.90507  -0.00020  -0.00148   0.00254   0.00107   1.90614
    R4        2.05689   0.00001   0.00002  -0.00021  -0.00019   2.05670
    R5        2.05039   0.00003   0.00003  -0.00005  -0.00002   2.05036
    R6        2.05693   0.00005   0.00005   0.00003   0.00007   2.05700
    R7        2.33741   0.00023  -0.00009   0.00055   0.00046   2.33787
    R8        2.87535   0.00009  -0.00098  -0.00286  -0.00383   2.87151
    R9        2.74055  -0.00020  -0.00017   0.00067   0.00051   2.74105
   R10        2.89358  -0.00038   0.00029   0.00207   0.00236   2.89593
   R11        2.05890  -0.00002  -0.00029  -0.00145  -0.00175   2.05715
   R12        2.50556   0.00011   0.00121   0.00031   0.00151   2.50708
   R13        1.91285  -0.00015  -0.00147   0.00192   0.00045   1.91330
   R14        2.91342   0.00025  -0.00061  -0.00324  -0.00385   2.90956
   R15        2.32620   0.00024  -0.00049   0.00020  -0.00029   2.32591
   R16        2.05792  -0.00003   0.00036  -0.00033   0.00003   2.05795
   R17        2.05682   0.00008   0.00001  -0.00011  -0.00010   2.05672
   R18        2.05973   0.00001  -0.00002   0.00007   0.00005   2.05979
   R19        2.81593  -0.00011   0.00020   0.00131   0.00151   2.81744
   R20        2.28798  -0.00022  -0.00050   0.00095   0.00045   2.28843
   R21        2.86964  -0.00013  -0.00022   0.00118   0.00096   2.87060
   R22        2.06600   0.00008   0.00037  -0.00095  -0.00057   2.06543
   R23        2.06638   0.00003   0.00034  -0.00058  -0.00024   2.06614
   R24        2.05873   0.00001   0.00013  -0.00035  -0.00022   2.05851
   R25        2.05704   0.00004  -0.00004   0.00013   0.00009   2.05713
   R26        2.05869   0.00001   0.00012  -0.00030  -0.00017   2.05852
    A1        2.12033   0.00017   0.00103  -0.00124  -0.00043   2.11990
    A2        2.08902  -0.00003   0.00090   0.00103   0.00170   2.09072
    A3        2.07345  -0.00014  -0.00215  -0.00064  -0.00301   2.07044
    A4        1.92850  -0.00006  -0.00068  -0.00042  -0.00111   1.92739
    A5        1.88860  -0.00000  -0.00052   0.00139   0.00087   1.88947
    A6        1.92881   0.00002  -0.00020   0.00019  -0.00001   1.92879
    A7        1.90696   0.00001   0.00028  -0.00101  -0.00073   1.90623
    A8        1.90288   0.00003   0.00063  -0.00048   0.00015   1.90303
    A9        1.90787  -0.00000   0.00050   0.00034   0.00084   1.90871
   A10        2.14584   0.00000   0.00127   0.00111   0.00235   2.14819
   A11        2.01904  -0.00010  -0.00015   0.00316   0.00298   2.02202
   A12        2.11761   0.00011  -0.00107  -0.00484  -0.00594   2.11167
   A13        1.87903   0.00025  -0.00022   0.00228   0.00198   1.88101
   A14        1.92106  -0.00018  -0.00758  -0.01361  -0.02118   1.89987
   A15        1.90372   0.00009   0.00440   0.00980   0.01419   1.91791
   A16        1.94939  -0.00009   0.00107   0.00011   0.00114   1.95052
   A17        1.89403  -0.00017   0.00218   0.00005   0.00219   1.89622
   A18        1.91566   0.00010   0.00037   0.00184   0.00226   1.91792
   A19        2.13299   0.00016  -0.00018  -0.00329  -0.00356   2.12942
   A20        2.07015  -0.00006  -0.00221   0.00280   0.00050   2.07066
   A21        2.07994  -0.00010   0.00238   0.00084   0.00313   2.08307
   A22        1.98940   0.00004   0.00095   0.00067   0.00164   1.99105
   A23        2.18699   0.00018   0.00046  -0.00171  -0.00123   2.18576
   A24        2.10657  -0.00021  -0.00125   0.00093  -0.00030   2.10628
   A25        1.92369  -0.00007  -0.00403  -0.00212  -0.00616   1.91753
   A26        1.91087  -0.00012   0.00237   0.00084   0.00322   1.91408
   A27        1.92087  -0.00001   0.00044  -0.00315  -0.00271   1.91815
   A28        1.89654   0.00010   0.00118   0.00287   0.00406   1.90059
   A29        1.90614   0.00005   0.00033   0.00137   0.00168   1.90782
   A30        1.90546   0.00005  -0.00026   0.00028   0.00002   1.90548
   A31        2.02658   0.00003   0.00058  -0.00051   0.00008   2.02665
   A32        2.08056  -0.00015  -0.00085   0.00095   0.00010   2.08066
   A33        2.17605   0.00012   0.00026  -0.00044  -0.00018   2.17586
   A34        1.97115   0.00008   0.00008  -0.00004   0.00005   1.97119
   A35        1.86708  -0.00007   0.00050   0.00059   0.00109   1.86817
   A36        1.86560  -0.00000   0.00065  -0.00109  -0.00044   1.86516
   A37        1.95570   0.00002   0.00011  -0.00095  -0.00084   1.95485
   A38        1.95568  -0.00002   0.00003  -0.00212  -0.00209   1.95359
   A39        1.84055  -0.00002  -0.00143   0.00397   0.00254   1.84309
   A40        1.93594  -0.00002  -0.00036   0.00058   0.00023   1.93617
   A41        1.91710   0.00007   0.00093  -0.00200  -0.00107   1.91603
   A42        1.93629  -0.00003  -0.00040   0.00002  -0.00038   1.93591
   A43        1.89168  -0.00002  -0.00000   0.00050   0.00050   1.89218
   A44        1.88973   0.00002  -0.00019   0.00069   0.00050   1.89023
   A45        1.89188  -0.00002   0.00002   0.00024   0.00026   1.89214
    D1        1.07519  -0.00001   0.00470   0.01524   0.01996   1.09515
    D2       -3.12088  -0.00003   0.00433   0.01461   0.01895  -3.10193
    D3       -1.03248  -0.00002   0.00450   0.01599   0.02051  -1.01197
    D4       -2.09673  -0.00001  -0.00291  -0.01785  -0.02077  -2.11750
    D5       -0.00961  -0.00003  -0.00328  -0.01848  -0.02178  -0.03139
    D6        2.07879  -0.00002  -0.00311  -0.01710  -0.02023   2.05856
    D7       -0.02491  -0.00026  -0.01003  -0.01881  -0.02879  -0.05370
    D8        3.07703   0.00014  -0.00867  -0.03506  -0.04373   3.03330
    D9       -3.13644  -0.00026  -0.00256   0.01397   0.01141  -3.12504
   D10       -0.03450   0.00014  -0.00120  -0.00229  -0.00354  -0.03804
   D11        2.85245  -0.00035  -0.04280  -0.15684  -0.19965   2.65280
   D12       -1.30219  -0.00040  -0.04617  -0.16348  -0.20963  -1.51181
   D13        0.80050  -0.00034  -0.04765  -0.16346  -0.21118   0.58932
   D14       -0.32809   0.00004  -0.04141  -0.17267  -0.21406  -0.54215
   D15        1.80045  -0.00002  -0.04478  -0.17931  -0.22403   1.57642
   D16       -2.38005   0.00005  -0.04626  -0.17929  -0.22558  -2.60563
   D17       -2.78927  -0.00010  -0.01547   0.00481  -0.01066  -2.79994
   D18        0.33669   0.00001  -0.01578   0.03027   0.01448   0.35117
   D19        1.38304   0.00001  -0.00660   0.02008   0.01350   1.39654
   D20       -1.77418   0.00012  -0.00691   0.04554   0.03864  -1.73554
   D21       -0.73105   0.00005  -0.00920   0.01768   0.00848  -0.72256
   D22        2.39492   0.00017  -0.00951   0.04314   0.03362   2.42854
   D23        1.13639  -0.00002   0.00776  -0.02301  -0.01525   1.12114
   D24       -3.06155  -0.00001   0.00821  -0.02025  -0.01205  -3.07360
   D25       -0.96707  -0.00003   0.00965  -0.02133  -0.01169  -0.97876
   D26       -3.06056   0.00012   0.00316  -0.02911  -0.02593  -3.08649
   D27       -0.97532   0.00013   0.00361  -0.02635  -0.02273  -0.99805
   D28        1.11917   0.00011   0.00504  -0.02743  -0.02237   1.09680
   D29       -0.95909  -0.00008   0.00684  -0.02774  -0.02090  -0.97999
   D30        1.12616  -0.00007   0.00729  -0.02499  -0.01771   1.10845
   D31       -3.06254  -0.00009   0.00873  -0.02606  -0.01735  -3.07989
   D32        3.13367   0.00036   0.00771  -0.00311   0.00461   3.13828
   D33        0.01448  -0.00040  -0.00518   0.00272  -0.00244   0.01204
   D34        0.00779   0.00025   0.00806  -0.02872  -0.02068  -0.01289
   D35       -3.11140  -0.00051  -0.00483  -0.02290  -0.02773  -3.13913
   D36       -3.10926  -0.00039  -0.00279   0.00758   0.00479  -3.10447
   D37        0.02864  -0.00035  -0.00423   0.00802   0.00378   0.03242
   D38        0.01106   0.00033   0.00946   0.00202   0.01148   0.02254
   D39       -3.13422   0.00038   0.00801   0.00245   0.01047  -3.12375
   D40        3.13880   0.00002  -0.00063  -0.00605  -0.00668   3.13211
   D41       -0.98466   0.00005  -0.00008  -0.00687  -0.00695  -0.99160
   D42        0.98015  -0.00000  -0.00119  -0.00257  -0.00376   0.97639
   D43        0.00113  -0.00003   0.00091  -0.00652  -0.00562  -0.00449
   D44        2.16086   0.00001   0.00146  -0.00734  -0.00588   2.15498
   D45       -2.15752  -0.00005   0.00035  -0.00304  -0.00269  -2.16021
   D46        1.05100  -0.00003  -0.00061  -0.00110  -0.00171   1.04928
   D47       -3.14134  -0.00001  -0.00024  -0.00140  -0.00164   3.14021
   D48       -1.05002  -0.00002   0.00013  -0.00238  -0.00224  -1.05226
   D49       -1.05907  -0.00001  -0.00141  -0.00114  -0.00255  -1.06162
   D50        1.03178  -0.00000  -0.00104  -0.00143  -0.00247   1.02931
   D51        3.12310  -0.00001  -0.00066  -0.00241  -0.00308   3.12002
   D52       -3.12407   0.00001   0.00032  -0.00411  -0.00379  -3.12786
   D53       -1.03322   0.00002   0.00069  -0.00440  -0.00371  -1.03693
   D54        1.05810   0.00002   0.00106  -0.00538  -0.00432   1.05378
         Item               Value     Threshold  Converged?
 Maximum Force            0.000513     0.000450     NO 
 RMS     Force            0.000152     0.000300     YES
 Maximum Displacement     0.536417     0.001800     NO 
 RMS     Displacement     0.107877     0.001200     NO 
 Predicted change in Energy=-1.434503D-04
 GradGradGradGradGradGradGradGradGradGradGradGradGradGradGradGradGradGrad

                          Input orientation:                          
 ---------------------------------------------------------------------
 Center     Atomic      Atomic             Coordinates (Angstroms)
 Number     Number       Type             X           Y           Z
 ---------------------------------------------------------------------
      1          7           0       -3.424469    1.236699    0.985659
      2          6           0       -4.536889    0.416039    1.441162
      3          6           0       -2.340058    0.694574    0.440068
      4          8           0       -2.176700   -0.527069    0.333126
      5          6           0       -1.322176    1.672288   -0.122954
      6          7           0       -0.016868    1.044060   -0.049075
      7          6           0        1.106323    1.748370   -0.098971
      8          6           0       -1.708009    2.012377   -1.566529
      9          6           0        2.385992    0.897872   -0.000479
     10          8           0        1.172494    2.973440   -0.197635
     11          6           0        3.674438    1.648048   -0.002377
     12          8           0        2.290459   -0.306854    0.076934
     13          6           0        4.887799    0.741119    0.110628
     14          1           0       -3.494250    2.242178    1.025501
     15          1           0       -4.217490   -0.244620    2.244925
     16          1           0       -5.316937    1.074542    1.808772
     17          1           0       -4.928116   -0.184735    0.622085
     18          1           0       -1.306748    2.578773    0.479619
     19          1           0        0.032611    0.036290    0.034923
     20          1           0       -2.665208    2.531532   -1.581257
     21          1           0       -0.950017    2.658101   -2.005883
     22          1           0       -1.784645    1.098282   -2.155290
     23          1           0        3.694767    2.247310   -0.916200
     24          1           0        3.624060    2.367096    0.819726
     25          1           0        4.929525    0.041165   -0.722997
     26          1           0        5.797069    1.339613    0.102952
     27          1           0        4.860544    0.168609    1.036968
 ---------------------------------------------------------------------
                    Distance matrix (angstroms):
                    1          2          3          4          5
     1  N    0.000000
     2  C    1.455488   0.000000
     3  C    1.329481   2.430193   0.000000
     4  O    2.256902   2.772669   1.237147   0.000000
     5  C    2.416278   3.789327   1.519540   2.403205   0.000000
     6  N    3.566445   4.800605   2.399710   2.698035   1.450502
     7  C    4.686823   5.999414   3.643980   4.017782   2.429809
     8  C    3.171999   4.426857   2.482443   3.205799   1.532461
     9  C    5.903281   7.087791   4.750890   4.791649   3.790149
    10  O    5.054555   6.467071   4.235318   4.873640   2.814596
    11  C    7.179130   8.427784   6.105655   6.251361   4.998128
    12  O    5.989052   6.999741   4.751464   4.479915   4.124087
    13  C    8.372878   9.523694   7.235511   7.180874   6.283743
    14  H    1.008684   2.143514   2.017417   3.143891   2.522227
    15  H    2.099748   1.088358   2.768456   2.810619   4.202884
    16  H    2.070082   1.085006   3.298414   3.821489   4.477385
    17  H    2.100861   1.088520   2.739409   2.787648   4.123884
    18  H    2.557730   4.004472   2.149303   3.228705   1.088599
    19  H    3.781043   4.796045   2.495403   2.299424   2.129991
    20  H    2.973571   4.136849   2.750617   3.641228   2.160713
    21  H    4.134322   5.456612   3.430791   4.137756   2.157719
    22  H    3.545947   4.579822   2.684650   2.997947   2.161886
    23  H    7.437871   8.756190   6.377269   6.613026   5.111713
    24  H    7.140525   8.413911   6.205818   6.500907   5.082977
    25  H    8.610344   9.717876   7.390974   7.206713   6.488789
    26  H    9.264261  10.461094   8.169611   8.192586   7.130593
    27  H    8.353736   9.409376   7.244418   7.106487   6.467805
                    6          7          8          9         10
     6  N    0.000000
     7  C    1.326688   0.000000
     8  C    2.469871   3.184948   0.000000
     9  C    2.407794   1.539675   4.522773   0.000000
    10  O    2.271378   1.230816   3.330888   2.412349   0.000000
    11  C    3.740685   2.571888   5.616943   1.490926   2.838048
    12  O    2.676678   2.378459   4.905869   1.210985   3.476430
    13  C    4.916609   3.918934   6.923413   2.509175   4.345316
    14  H    3.831760   4.761676   3.156277   6.118582   4.879478
    15  H    4.956647   6.148890   5.091043   7.067751   6.736018
    16  H    5.616337   6.734374   5.029567   7.914525   7.052956
    17  H    5.106931   6.377404   4.470617   7.419959   6.918342
    18  H    2.073319   2.616725   2.160680   4.085615   2.600207
    19  H    1.012474   2.025340   3.082098   2.506387   3.159156
    20  H    3.402037   4.127343   1.089021   5.539162   4.103370
    21  H    2.702775   2.948297   1.088368   4.271885   2.806109
    22  H    2.750295   3.606766   1.089992   4.698680   4.011646
    23  H    3.996993   2.759863   5.446844   2.091033   2.721297
    24  H    3.970088   2.750605   5.852436   2.089059   2.722656
    25  H    5.091834   4.233300   6.975248   2.779485   4.794739
    26  H    5.823429   4.712849   7.717900   3.441116   4.913902
    27  H    5.072973   4.228496   7.302299   2.780563   4.795105
                   11         12         13         14         15
    11  C    0.000000
    12  O    2.396525   0.000000
    13  C    1.519057   2.800993   0.000000
    14  H    7.266334   6.392199   8.564399   0.000000
    15  H    8.421109   6.859844   9.403893   2.862558   0.000000
    16  H    9.189885   7.923382  10.350435   2.301971   1.771780
    17  H    8.817765   7.240161   9.872740   2.847564   1.772622
    18  H    5.090263   4.629136   6.471904   2.279573   4.422700
    19  H    3.982720   2.284161   4.906666   4.276206   4.798581
    20  H    6.592762   5.946820   7.944556   2.750677   4.975568
    21  H    5.140022   4.861046   6.498810   3.979372   6.096847
    22  H    5.893969   4.854247   7.055740   3.787965   5.204231
    23  H    1.092978   3.079310   2.178603   7.446623   8.877288
    24  H    1.093353   3.079000   2.177994   7.122380   8.387023
    25  H    2.162547   2.779510   1.089315   8.880410   9.620713
    26  H    2.147507   3.873996   1.088588   9.380529  10.362877
    27  H    2.162366   2.784433   1.089320   8.608275   9.167367
                   16         17         18         19         20
    16  H    0.000000
    17  H    1.773468   0.000000
    18  H    4.484526   4.557585   0.000000
    19  H    5.730809   5.000242   2.907896   0.000000
    20  H    4.543873   4.165762   2.468776   4.014535   0.000000
    21  H    6.010760   5.550965   2.512224   3.464728   1.771499
    22  H    5.309560   4.386497   3.059900   3.037644   1.777388
    23  H    9.487447   9.090395   5.203203   4.382309   6.400965
    24  H    9.087922   8.926961   4.947054   4.352824   6.733992
    25  H   10.605078   9.951550   6.839359   4.955222   8.038563
    26  H   11.247275  10.845401   7.220914   5.910351   8.710187
    27  H   10.246829   9.803818   6.644924   4.932600   8.311164
                   21         22         23         24         25
    21  H    0.000000
    22  H    1.775377   0.000000
    23  H    4.788546   5.734071   0.000000
    24  H    5.384322   6.301961   1.741490   0.000000
    25  H    6.562252   6.946153   2.535554   3.081264   0.000000
    26  H    7.190880   7.914562   2.506443   2.508276   1.766577
    27  H    7.015635   7.430569   3.081380   2.531685   1.765922
                   26         27
    26  H    0.000000
    27  H    1.766555   0.000000
 Stoichiometry    C8H14N2O3
 Framework group  C1[X(C8H14N2O3)]
 Deg. of freedom    75
 Full point group                 C1      NOp   1
 Largest Abelian subgroup         C1      NOp   1
 Largest concise Abelian subgroup C1      NOp   1
                         Standard orientation:                         
 ---------------------------------------------------------------------
 Center     Atomic      Atomic             Coordinates (Angstroms)
 Number     Number       Type             X           Y           Z
 ---------------------------------------------------------------------
      1          7           0        3.454811    0.017345   -0.639871
      2          6           0        4.641469   -0.825125   -0.616842
      3          6           0        2.351289   -0.320188    0.020302
      4          8           0        2.235946   -1.382086    0.644484
      5          6           0        1.241452    0.717678    0.030182
      6          7           0       -0.020801    0.014935    0.159904
      7          6           0       -1.175444    0.575541   -0.175691
      8          6           0        1.476603    1.683115    1.196832
      9          6           0       -2.399564   -0.335048    0.031574
     10          8           0       -1.307475    1.711182   -0.631537
     11          6           0       -3.716306    0.232159   -0.377485
     12          8           0       -2.241231   -1.440780    0.499304
     13          6           0       -4.870505   -0.729875   -0.154218
     14          1           0        3.480987    0.907008   -1.114486
     15          1           0        4.428507   -1.793734   -1.065136
     16          1           0        5.420453   -0.330796   -1.187860
     17          1           0        4.983303   -0.974638    0.405738
     18          1           0        1.239243    1.266461   -0.909966
     19          1           0       -0.015288   -0.929056    0.525900
     20          1           0        2.403130    2.233668    1.040606
     21          1           0        0.652127    2.390917    1.258481
     22          1           0        1.541318    1.126532    2.131770
     23          1           0       -3.848519    1.165714    0.175322
     24          1           0       -3.624127    0.522718   -1.427485
     25          1           0       -4.956028   -0.997588    0.898219
     26          1           0       -5.803548   -0.264904   -0.467679
     27          1           0       -4.731499   -1.644333   -0.729598
 ---------------------------------------------------------------------
 Rotational constants (GHZ):           1.9373021           0.3304060           0.3036057
 Standard basis: 6-311+G(d,p) (5D, 7F)
 There are   383 symmetry adapted cartesian basis functions of A   symmetry.
 There are   370 symmetry adapted basis functions of A   symmetry.
   370 basis functions,   580 primitive gaussians,   383 cartesian basis functions
    50 alpha electrons       50 beta electrons
       nuclear repulsion energy       812.1482879033 Hartrees.
 NAtoms=   27 NActive=   27 NUniq=   27 SFac= 1.00D+00 NAtFMM=   60 NAOKFM=F Big=F
 Integral buffers will be    131072 words long.
 Raffenetti 2 integral format.
 Two-electron integral symmetry is turned on.
 ------------------------------------------------------------------------------
 Polarizable Continuum Model (PCM)
 =================================
 Model                : PCM.
 Atomic radii         : SMD-Coulomb.
 Polarization charges : Total charges.
 Charge compensation  : None.
 Solution method      : On-the-fly selection.
 Cavity type          : VdW (van der Waals Surface) (Alpha=1.000).
 Cavity algorithm     : GePol (No added spheres)
                        Default sphere list used, NSphG=   27.
                        Lebedev-Laikov grids with approx.  5.0 points / Ang**2.
                        Smoothing algorithm: York/Karplus (Gamma=1.0000).
                        Polarization charges: spherical gaussians, with
                                              point-specific exponents (IZeta= 3).
                        Self-potential: point-specific (ISelfS= 7).
                        Self-field    : sphere-specific E.n sum rule (ISelfD= 2).
 1st derivatives      : Analytical E(r).r(x)/FMM algorithm (CHGder, D1EAlg=3).
                        Cavity 1st derivative terms included.
 Solvent              : Water, Eps=  78.355300 Eps(inf)=   1.777849
 ------------------------------------------------------------------------------
 ------------------------------------------------------------------------------
 Atomic radii for non-electrostatic terms: SMD-CDS.
 ------------------------------------------------------------------------------
 Nuclear repulsion after PCM non-electrostatic terms =      812.1585615187 Hartrees.
 One-electron integrals computed using PRISM.
 NBasis=   370 RedAO= T EigKep=  5.00D-06  NBF=   370
 NBsUse=   370 1.00D-06 EigRej= -1.00D+00 NBFU=   370
 Initial guess from the checkpoint file:  "2KT_3D.chk"
 B after Tr=    -0.000000   -0.000000    0.000000
         Rot=    0.999982    0.005800   -0.000999   -0.001048 Ang=   0.69 deg.
 ExpMin= 4.38D-02 ExpMax= 8.59D+03 ExpMxC= 1.30D+03 IAcc=3 IRadAn=         5 AccDes= 0.00D+00
 Harris functional with IExCor= 1009 and IRadAn=       5 diagonalized for initial guess.
 HarFok:  IExCor= 1009 AccDes= 0.00D+00 IRadAn=         5 IDoV= 1 UseB2=F ITyADJ=14
 ICtDFT=  3500011 ScaDFX=  1.000000  1.000000  1.000000  1.000000
 FoFCou: FMM=F IPFlag=           0 FMFlag=      100000 FMFlg1=           0
         NFxFlg=           0 DoJE=T BraDBF=F KetDBF=T FulRan=T
         wScrn=  0.000000 ICntrl=       500 IOpCl=  0 I1Cent=   200000004 NGrid=           0
         NMat0=    1 NMatS0=      1 NMatT0=    0 NMatD0=    1 NMtDS0=    0 NMtDT0=    0
 Petite list used in FoFCou.
 Requested convergence on RMS density matrix=1.00D-08 within 128 cycles.
 Requested convergence on MAX density matrix=1.00D-06.
 Requested convergence on             energy=1.00D-06.
 No special actions if energy rises.
 Inv3:  Mode=1 IEnd=    11466075.
 Iteration    1 A*A^-1 deviation from unit magnitude is 5.66D-15 for   1951.
 Iteration    1 A*A^-1 deviation from orthogonality  is 3.87D-15 for   1936   1330.
 Iteration    1 A^-1*A deviation from unit magnitude is 6.44D-15 for    202.
 Iteration    1 A^-1*A deviation from orthogonality  is 2.69D-12 for   1320   1297.
 Error on total polarization charges =  0.05799
 SCF Done:  E(RM052X) =  -648.621176057     A.U. after   13 cycles
            NFock= 13  Conv=0.60D-08     -V/T= 2.0038
 SMD-CDS (non-electrostatic) energy       (kcal/mol) =       6.45
 (included in total energy above)
 D1PCM: PCM CHGder 1st derivatives, ID1Alg=3 FixD1E=F DoIter=F DoCFld=F I1PDM=0.
 Calling FoFJK, ICntrl=      2127 FMM=F ISym2X=0 I1Cent= 0 IOpClX= 0 NMat=1 NMatS=1 NMatT=0.
 ***** Axes restored to original set *****
 -------------------------------------------------------------------
 Center     Atomic                   Forces (Hartrees/Bohr)
 Number     Number              X              Y              Z
 -------------------------------------------------------------------
      1        7           0.000227505    0.000116264    0.000180990
      2        6           0.000170278    0.000088204    0.000269621
      3        6          -0.001213859    0.000981020   -0.001133143
      4        8           0.000862929   -0.000262062    0.000857059
      5        6          -0.001231000   -0.000284817   -0.000990918
      6        7          -0.000067048    0.000042909    0.000460204
      7        6          -0.001009996   -0.000137552    0.000813618
      8        6           0.000443501   -0.000417513    0.000735757
      9        6           0.001403820   -0.000845808    0.000071499
     10        8           0.000073218    0.000163354   -0.000306572
     11        6           0.000000661   -0.000975593    0.000277606
     12        8          -0.000041638    0.000529113   -0.000173922
     13        6          -0.000350922    0.000351171   -0.000119310
     14        1          -0.000053752   -0.000591708    0.000108483
     15        1           0.000007233   -0.000040993   -0.000010623
     16        1           0.000015863    0.000061795   -0.000029424
     17        1          -0.000017993    0.000020526   -0.000088027
     18        1           0.000350268    0.000120411    0.000086147
     19        1           0.000477776    0.000422391   -0.000662976
     20        1          -0.000051269    0.000111635   -0.000260597
     21        1           0.000123133    0.000126181    0.000122719
     22        1          -0.000025905    0.000119007    0.000000399
     23        1          -0.000141714    0.000258954   -0.000096103
     24        1          -0.000056219    0.000241940   -0.000111810
     25        1           0.000025804   -0.000042435   -0.000064262
     26        1           0.000066595   -0.000095181    0.000013535
     27        1           0.000012731   -0.000061211    0.000050047
 -------------------------------------------------------------------
 Cartesian Forces:  Max     0.001403820 RMS     0.000458338

 GradGradGradGradGradGradGradGradGradGradGradGradGradGradGradGradGradGrad
 Berny optimization.
 Using GEDIIS/GDIIS optimizer.
 FormGI is forming the generalized inverse of G from B-inverse, IUseBI=4.
 Internal  Forces:  Max     0.001098689 RMS     0.000310037
 Search for a local minimum.
 Step number  11 out of a maximum of  135
 All quantities printed in internal units (Hartrees-Bohrs-Radians)
 Mixed Optimization -- En-DIIS/RFO-DIIS
 Swapping is turned off.
 Update second derivatives using D2CorX and points    7    8    9   10   11
 DE= -3.61D-05 DEPred=-1.43D-04 R= 2.52D-01
 Trust test= 2.52D-01 RLast= 5.38D-01 DXMaxT set to 2.72D-01
 ITU=  0 -1  1  1 -1  1  1  0  1  1  0
     Eigenvalues ---    0.00115   0.00324   0.00370   0.00604   0.00678
     Eigenvalues ---    0.00830   0.00886   0.01358   0.01418   0.02268
     Eigenvalues ---    0.02373   0.02735   0.03969   0.04201   0.04377
     Eigenvalues ---    0.04992   0.05113   0.05546   0.05566   0.05671
     Eigenvalues ---    0.05756   0.05779   0.06438   0.07407   0.07647
     Eigenvalues ---    0.08980   0.13074   0.15272   0.15675   0.15969
     Eigenvalues ---    0.15992   0.16001   0.16007   0.16015   0.16032
     Eigenvalues ---    0.16044   0.16074   0.16431   0.17352   0.17709
     Eigenvalues ---    0.20033   0.21941   0.22044   0.24438   0.24990
     Eigenvalues ---    0.25185   0.25738   0.26462   0.27670   0.29488
     Eigenvalues ---    0.29988   0.32112   0.32399   0.34058   0.34768
     Eigenvalues ---    0.34807   0.34809   0.34812   0.34815   0.34817
     Eigenvalues ---    0.34822   0.34824   0.34838   0.34874   0.34894
     Eigenvalues ---    0.35051   0.36392   0.37084   0.53078   0.53457
     Eigenvalues ---    0.55569   0.56937   0.97623   0.98419   1.01152
 En-DIIS/RFO-DIIS/Sim-DIIS IScMMF=       -3 using points:    11   10    9    8    7    6    5    4    3
 RFO step:  Lambda=-2.00701088D-04.
 EnCoef did   100 forward-backward iterations
 EnCoef did   100 forward-backward iterations
 EnCoef did   100 forward-backward iterations
 EnCoef did   100 forward-backward iterations
 EnCoef did   100 forward-backward iterations
 EnCoef did     2 forward-backward iterations
 DidBck=T Rises=T En-DIIS coefs:    0.50211    0.41654    0.00000    0.08135    0.00000
                  En-DIIS coefs:    0.00000    0.00000    0.00000    0.00000
 Iteration  1 RMS(Cart)=  0.05113992 RMS(Int)=  0.00170497
 Iteration  2 RMS(Cart)=  0.00213743 RMS(Int)=  0.00001036
 Iteration  3 RMS(Cart)=  0.00000408 RMS(Int)=  0.00001013
 Iteration  4 RMS(Cart)=  0.00000000 RMS(Int)=  0.00001013
 Variable       Old X    -DE/DX   Delta X   Delta X   Delta X     New X
                                 (Linear)    (Quad)   (Total)
    R1        2.75047  -0.00016  -0.00011   0.00000  -0.00011   2.75037
    R2        2.51235  -0.00026   0.00025   0.00000   0.00025   2.51260
    R3        1.90614  -0.00058  -0.00080   0.00000  -0.00080   1.90534
    R4        2.05670   0.00002   0.00010   0.00000   0.00010   2.05680
    R5        2.05036   0.00001   0.00001   0.00000   0.00001   2.05038
    R6        2.05700   0.00007  -0.00003   0.00000  -0.00003   2.05697
    R7        2.33787   0.00030  -0.00026   0.00000  -0.00026   2.33761
    R8        2.87151  -0.00018   0.00173   0.00000   0.00173   2.87324
    R9        2.74105   0.00042  -0.00028   0.00000  -0.00028   2.74077
   R10        2.89593  -0.00070  -0.00109   0.00000  -0.00109   2.89484
   R11        2.05715   0.00015   0.00082   0.00000   0.00082   2.05797
   R12        2.50708  -0.00034  -0.00053   0.00000  -0.00053   2.50655
   R13        1.91330  -0.00045  -0.00050   0.00000  -0.00050   1.91280
   R14        2.90956   0.00110   0.00176   0.00000   0.00176   2.91132
   R15        2.32591   0.00019   0.00004   0.00000   0.00004   2.32595
   R16        2.05795   0.00010   0.00005   0.00000   0.00005   2.05800
   R17        2.05672   0.00011   0.00005   0.00000   0.00005   2.05676
   R18        2.05979  -0.00010  -0.00003   0.00000  -0.00003   2.05976
   R19        2.81744  -0.00054  -0.00070   0.00000  -0.00070   2.81674
   R20        2.28843  -0.00054  -0.00031   0.00000  -0.00031   2.28812
   R21        2.87060  -0.00030  -0.00050   0.00000  -0.00050   2.87010
   R22        2.06543   0.00022   0.00035   0.00000   0.00035   2.06578
   R23        2.06614   0.00008   0.00018   0.00000   0.00018   2.06631
   R24        2.05851   0.00007   0.00013   0.00000   0.00013   2.05864
   R25        2.05713   0.00000  -0.00006   0.00000  -0.00006   2.05708
   R26        2.05852   0.00008   0.00011   0.00000   0.00011   2.05862
    A1        2.11990   0.00006   0.00038   0.00000   0.00043   2.12033
    A2        2.09072  -0.00016  -0.00068   0.00000  -0.00062   2.09009
    A3        2.07044   0.00011   0.00113   0.00000   0.00118   2.07162
    A4        1.92739   0.00006   0.00044   0.00000   0.00044   1.92784
    A5        1.88947  -0.00009  -0.00054   0.00000  -0.00054   1.88893
    A6        1.92879  -0.00008  -0.00004   0.00000  -0.00004   1.92875
    A7        1.90623   0.00005   0.00043   0.00000   0.00043   1.90666
    A8        1.90303   0.00002   0.00004   0.00000   0.00004   1.90307
    A9        1.90871   0.00003  -0.00033   0.00000  -0.00033   1.90838
   A10        2.14819  -0.00002  -0.00092   0.00000  -0.00091   2.14728
   A11        2.02202   0.00079  -0.00156   0.00000  -0.00155   2.02047
   A12        2.11167  -0.00074   0.00279   0.00000   0.00280   2.11447
   A13        1.88101  -0.00054  -0.00107   0.00000  -0.00105   1.87996
   A14        1.89987   0.00106   0.00920   0.00000   0.00920   1.90907
   A15        1.91791  -0.00019  -0.00634   0.00000  -0.00634   1.91158
   A16        1.95052  -0.00045  -0.00034   0.00000  -0.00033   1.95020
   A17        1.89622   0.00022  -0.00062   0.00000  -0.00061   1.89561
   A18        1.91792  -0.00010  -0.00109   0.00000  -0.00111   1.91682
   A19        2.12942   0.00082   0.00171   0.00000   0.00173   2.13115
   A20        2.07066   0.00006  -0.00066   0.00000  -0.00064   2.07002
   A21        2.08307  -0.00088  -0.00108   0.00000  -0.00106   2.08201
   A22        1.99105  -0.00022  -0.00065   0.00000  -0.00064   1.99041
   A23        2.18576   0.00018   0.00066   0.00000   0.00067   2.18643
   A24        2.10628   0.00005  -0.00006   0.00000  -0.00005   2.10622
   A25        1.91753   0.00042   0.00235   0.00000   0.00235   1.91988
   A26        1.91408  -0.00034  -0.00117   0.00000  -0.00117   1.91292
   A27        1.91815   0.00010   0.00145   0.00000   0.00145   1.91960
   A28        1.90059  -0.00009  -0.00183   0.00000  -0.00183   1.89876
   A29        1.90782  -0.00017  -0.00079   0.00000  -0.00078   1.90704
   A30        1.90548   0.00008  -0.00006   0.00000  -0.00006   1.90542
   A31        2.02665   0.00013   0.00008   0.00000   0.00008   2.02673
   A32        2.08066  -0.00017  -0.00018   0.00000  -0.00018   2.08048
   A33        2.17586   0.00004   0.00010   0.00000   0.00010   2.17597
   A34        1.97119  -0.00010  -0.00004   0.00000  -0.00004   1.97115
   A35        1.86817  -0.00006  -0.00043   0.00000  -0.00043   1.86774
   A36        1.86516   0.00003   0.00035   0.00000   0.00035   1.86551
   A37        1.95485   0.00012   0.00043   0.00000   0.00043   1.95528
   A38        1.95359   0.00016   0.00104   0.00000   0.00104   1.95462
   A39        1.84309  -0.00016  -0.00149   0.00000  -0.00149   1.84160
   A40        1.93617  -0.00001  -0.00018   0.00000  -0.00018   1.93599
   A41        1.91603   0.00016   0.00068   0.00000   0.00068   1.91671
   A42        1.93591   0.00000   0.00012   0.00000   0.00012   1.93603
   A43        1.89218  -0.00007  -0.00025   0.00000  -0.00025   1.89194
   A44        1.89023  -0.00002  -0.00028   0.00000  -0.00028   1.88994
   A45        1.89214  -0.00007  -0.00012   0.00000  -0.00012   1.89203
    D1        1.09515  -0.00008  -0.00904   0.00000  -0.00905   1.08610
    D2       -3.10193  -0.00004  -0.00860   0.00000  -0.00860  -3.11053
    D3       -1.01197  -0.00010  -0.00935   0.00000  -0.00936  -1.02133
    D4       -2.11750   0.00002   0.00993   0.00000   0.00994  -2.10756
    D5       -0.03139   0.00007   0.01038   0.00000   0.01039  -0.02101
    D6        2.05856   0.00000   0.00962   0.00000   0.00963   2.06819
    D7       -0.05370  -0.00031   0.01261   0.00000   0.01260  -0.04110
    D8        3.03330   0.00046   0.02028   0.00000   0.02028   3.05358
    D9       -3.12504  -0.00040  -0.00613   0.00000  -0.00612  -3.13116
   D10       -0.03804   0.00037   0.00155   0.00000   0.00156  -0.03648
   D11        2.65280  -0.00021   0.09338   0.00000   0.09339   2.74619
   D12       -1.51181  -0.00046   0.09778   0.00000   0.09777  -1.41404
   D13        0.58932  -0.00005   0.09821   0.00000   0.09823   0.68755
   D14       -0.54215   0.00057   0.10079   0.00000   0.10079  -0.44136
   D15        1.57642   0.00032   0.10519   0.00000   0.10517   1.68160
   D16       -2.60563   0.00073   0.10562   0.00000   0.10563  -2.50000
   D17       -2.79994   0.00046   0.00233   0.00000   0.00233  -2.79761
   D18        0.35117   0.00071  -0.01054   0.00000  -0.01054   0.34063
   D19        1.39654  -0.00022  -0.00813   0.00000  -0.00813   1.38840
   D20       -1.73554   0.00003  -0.02100   0.00000  -0.02100  -1.75655
   D21       -0.72256   0.00005  -0.00613   0.00000  -0.00613  -0.72869
   D22        2.42854   0.00030  -0.01901   0.00000  -0.01900   2.40954
   D23        1.12114   0.00026   0.00911   0.00000   0.00911   1.13025
   D24       -3.07360   0.00020   0.00758   0.00000   0.00758  -3.06602
   D25       -0.97876   0.00015   0.00767   0.00000   0.00768  -0.97109
   D26       -3.08649  -0.00000   0.01358   0.00000   0.01358  -3.07291
   D27       -0.99805  -0.00006   0.01205   0.00000   0.01205  -0.98600
   D28        1.09680  -0.00012   0.01215   0.00000   0.01215   1.10894
   D29       -0.97999  -0.00009   0.01185   0.00000   0.01185  -0.96814
   D30        1.10845  -0.00015   0.01032   0.00000   0.01032   1.11877
   D31       -3.07989  -0.00021   0.01041   0.00000   0.01042  -3.06947
   D32        3.13828   0.00043  -0.00105   0.00000  -0.00106   3.13722
   D33        0.01204   0.00004   0.00041   0.00000   0.00041   0.01245
   D34       -0.01289   0.00019   0.01190   0.00000   0.01190  -0.00099
   D35       -3.13913  -0.00021   0.01337   0.00000   0.01337  -3.12576
   D36       -3.10447  -0.00024  -0.00260   0.00000  -0.00261  -3.10707
   D37        0.03242  -0.00011  -0.00265   0.00000  -0.00265   0.02977
   D38        0.02254   0.00014  -0.00399   0.00000  -0.00399   0.01855
   D39       -3.12375   0.00027  -0.00404   0.00000  -0.00404  -3.12779
   D40        3.13211   0.00014   0.00317   0.00000   0.00317   3.13528
   D41       -0.99160   0.00018   0.00337   0.00000   0.00337  -0.98823
   D42        0.97639  -0.00002   0.00163   0.00000   0.00163   0.97802
   D43       -0.00449   0.00000   0.00322   0.00000   0.00322  -0.00127
   D44        2.15498   0.00005   0.00342   0.00000   0.00342   2.15840
   D45       -2.16021  -0.00015   0.00169   0.00000   0.00169  -2.15853
   D46        1.04928  -0.00005   0.00079   0.00000   0.00079   1.05007
   D47        3.14021  -0.00004   0.00081   0.00000   0.00081   3.14102
   D48       -1.05226  -0.00002   0.00118   0.00000   0.00118  -1.05108
   D49       -1.06162   0.00001   0.00107   0.00000   0.00107  -1.06055
   D50        1.02931   0.00002   0.00109   0.00000   0.00109   1.03040
   D51        3.12002   0.00004   0.00147   0.00000   0.00147   3.12149
   D52       -3.12786   0.00003   0.00198   0.00000   0.00198  -3.12588
   D53       -1.03693   0.00004   0.00200   0.00000   0.00200  -1.03493
   D54        1.05378   0.00005   0.00237   0.00000   0.00237   1.05616
         Item               Value     Threshold  Converged?
 Maximum Force            0.001099     0.000450     NO 
 RMS     Force            0.000310     0.000300     NO 
 Maximum Displacement     0.249544     0.001800     NO 
 RMS     Displacement     0.051294     0.001200     NO 
 Predicted change in Energy=-6.338912D-05
 GradGradGradGradGradGradGradGradGradGradGradGradGradGradGradGradGradGrad

                          Input orientation:                          
 ---------------------------------------------------------------------
 Center     Atomic      Atomic             Coordinates (Angstroms)
 Number     Number       Type             X           Y           Z
 ---------------------------------------------------------------------
      1          7           0       -3.457287    1.233791    0.934290
      2          6           0       -4.555313    0.404442    1.408421
      3          6           0       -2.328932    0.698050    0.478586
      4          8           0       -2.118556   -0.520865    0.465178
      5          6           0       -1.316398    1.677283   -0.093823
      6          7           0       -0.010824    1.048647   -0.031988
      7          6           0        1.113083    1.750746   -0.088944
      8          6           0       -1.708180    2.031137   -1.531865
      9          6           0        2.392028    0.896321   -0.001048
     10          8           0        1.181709    2.975939   -0.184643
     11          6           0        3.682170    1.642720   -0.014542
     12          8           0        2.293708   -0.307919    0.077892
     13          6           0        4.893830    0.732277    0.083991
     14          1           0       -3.563241    2.236073    0.906129
     15          1           0       -4.243470   -0.183732    2.269490
     16          1           0       -5.372734    1.056577    1.697896
     17          1           0       -4.892148   -0.268488    0.621944
     18          1           0       -1.297128    2.579153    0.516302
     19          1           0        0.038358    0.041867    0.060468
     20          1           0       -2.658713    2.562610   -1.538926
     21          1           0       -0.945346    2.671216   -1.971158
     22          1           0       -1.799617    1.122768   -2.127308
     23          1           0        3.694279    2.244039   -0.927378
     24          1           0        3.641963    2.361362    0.808600
     25          1           0        4.925267    0.034617   -0.752098
     26          1           0        5.805031    1.327636    0.069167
     27          1           0        4.873958    0.156830    1.008765
 ---------------------------------------------------------------------
                    Distance matrix (angstroms):
                    1          2          3          4          5
     1  N    0.000000
     2  C    1.455431   0.000000
     3  C    1.329613   2.430549   0.000000
     4  O    2.256343   2.771946   1.237009   0.000000
     5  C    2.416011   3.790439   1.520453   2.405784   0.000000
     6  N    3.584143   4.810629   2.399423   2.674523   1.450355
     7  C    4.711957   6.015426   3.643862   3.988829   2.430596
     8  C    3.126828   4.404268   2.490857   3.266390   1.531884
     9  C    5.933231   7.105919   4.749403   4.750910   3.790901
    10  O    5.080096   6.485666   4.237128   4.851974   2.816965
    11  C    7.213831   8.450697   6.104828   6.209642   4.999316
    12  O    6.015333   7.013333   4.747771   4.434344   4.123515
    13  C    8.409262   9.547140   7.233614   7.133668   6.284233
    14  H    1.008261   2.142749   2.017877   3.143606   2.521994
    15  H    2.100051   1.088410   2.765923   2.807928   4.197187
    16  H    2.069646   1.085013   3.298483   3.820679   4.477655
    17  H    2.100768   1.088502   2.743141   2.789459   4.133320
    18  H    2.578954   4.017588   2.145831   3.207408   1.089033
    19  H    3.795231   4.801067   2.491879   2.265554   2.129261
    20  H    2.918952   4.116021   2.766893   3.716991   2.161929
    21  H    4.100936   5.439824   3.436415   4.183484   2.156379
    22  H    3.483329   4.539959   2.692814   3.086136   2.162417
    23  H    7.458640   8.769027   6.375413   6.585815   5.111057
    24  H    7.189337   8.448944   6.207021   6.450484   5.086027
    25  H    8.634185   9.730674   7.387702   7.169781   6.487685
    26  H    9.303106  10.487259   8.168559   8.145981   7.131870
    27  H    8.400895   9.440984   7.242626   7.046276   6.469002
                    6          7          8          9         10
     6  N    0.000000
     7  C    1.326407   0.000000
     8  C    2.468994   3.181221   0.000000
     9  C    2.407874   1.540606   4.521384   0.000000
    10  O    2.271539   1.230839   3.325525   2.413170   0.000000
    11  C    3.740512   2.572433   5.613289   1.490557   2.838787
    12  O    2.676418   2.379035   4.906893   1.210823   3.476951
    13  C    4.916215   3.919341   6.919867   2.508616   4.345805
    14  H    3.861309   4.805593   3.070352   6.171153   4.924605
    15  H    4.973012   6.164177   5.077759   7.095892   6.740835
    16  H    5.634060   6.763172   4.980971   7.950070   7.084393
    17  H    5.098018   6.375380   4.479377   7.402980   6.933154
    18  H    2.073077   2.619484   2.159692   4.087719   2.606414
    19  H    1.012212   2.024259   3.089193   2.504723   3.158498
    20  H    3.402097   4.121653   1.089049   5.536387   4.093136
    21  H    2.695634   2.937197   1.088392   4.262588   2.794433
    22  H    2.756019   3.610139   1.089976   4.705544   4.012043
    23  H    3.994806   2.758420   5.440340   2.090524   2.720357
    24  H    3.971481   2.752030   5.849005   2.089070   2.723433
    25  H    5.090365   4.232921   6.971137   2.779193   4.794540
    26  H    5.823421   4.713639   7.714049   3.440865   4.914919
    27  H    5.073421   4.229623   7.300162   2.779667   4.796280
                   11         12         13         14         15
    11  C    0.000000
    12  O    2.396115   0.000000
    13  C    1.518794   2.800479   0.000000
    14  H    7.327734   6.439078   8.628984   0.000000
    15  H    8.447987   6.895884   9.439583   2.859532   0.000000
    16  H    9.234029   7.953653  10.397701   2.300515   1.772096
    17  H    8.807767   7.206529   9.851715   2.849488   1.772674
    18  H    5.094321   4.628335   6.475014   2.324852   4.403196
    19  H    3.980669   2.282380   4.904368   4.301302   4.823351
    20  H    6.586103   5.948152   7.938822   2.627374   4.955591
    21  H    5.128358   4.854412   6.486840   3.914270   6.083704
    22  H    5.897806   4.864676   7.060068   3.681244   5.197229
    23  H    1.093161   3.079717   2.178810   7.485547   8.895049
    24  H    1.093446   3.078439   2.178565   7.206953   8.413783
    25  H    2.162239   2.780525   1.089387   8.924735   9.656263
    26  H    2.147749   3.873565   1.088558   9.449353  10.397019
    27  H    2.162264   2.782123   1.089377   8.690231   9.210478
                   16         17         18         19         20
    16  H    0.000000
    17  H    1.773255   0.000000
    18  H    4.508322   4.587416   0.000000
    19  H    5.743755   4.972068   2.903296   0.000000
    20  H    4.484536   4.203891   2.465390   4.023233   0.000000
    21  H    5.972503   5.562669   2.513898   3.465351   1.770381
    22  H    5.234857   4.365516   3.059775   3.054973   1.776903
    23  H    9.513824   9.079643   5.206789   4.380772   6.390305
    24  H    9.151944   8.932077   4.952524   4.350371   6.726805
    25  H   10.634646   9.917737   6.841177   4.954009   8.032846
    26  H   11.299055  10.829718   7.225433   5.908282   8.703223
    27  H   10.309178   9.783013   6.647742   4.929048   8.307807
                   21         22         23         24         25
    21  H    0.000000
    22  H    1.775346   0.000000
    23  H    4.774733   5.734106   0.000000
    24  H    5.372753   6.305907   1.740725   0.000000
    25  H    6.549952   6.949773   2.535272   3.081622   0.000000
    26  H    7.178839   7.918153   2.507622   2.508827   1.766454
    27  H    7.004740   7.436706   3.081677   2.533345   1.765845
                   26         27
    26  H    0.000000
    27  H    1.766501   0.000000
 Stoichiometry    C8H14N2O3
 Framework group  C1[X(C8H14N2O3)]
 Deg. of freedom    75
 Full point group                 C1      NOp   1
 Largest Abelian subgroup         C1      NOp   1
 Largest concise Abelian subgroup C1      NOp   1
                         Standard orientation:                         
 ---------------------------------------------------------------------
 Center     Atomic      Atomic             Coordinates (Angstroms)
 Number     Number       Type             X           Y           Z
 ---------------------------------------------------------------------
      1          7           0        3.488120    0.045315   -0.571033
      2          6           0        4.662460   -0.814397   -0.561087
      3          6           0        2.347233   -0.330871   -0.001181
      4          8           0        2.191998   -1.436533    0.531364
      5          6           0        1.241842    0.712951    0.016853
      6          7           0       -0.022221    0.014788    0.151916
      7          6           0       -1.177150    0.577544   -0.177932
      8          6           0        1.479676    1.685288    1.176450
      9          6           0       -2.402036   -0.332407    0.034462
     10          8           0       -1.309967    1.713195   -0.633585
     11          6           0       -3.720190    0.237669   -0.364590
     12          8           0       -2.242219   -1.439558    0.497891
     13          6           0       -4.874618   -0.721656   -0.132800
     14          1           0        3.545401    0.965940   -0.978168
     15          1           0        4.460279   -1.740746   -1.095538
     16          1           0        5.473154   -0.287262   -1.053181
     17          1           0        4.953699   -1.050379    0.460837
     18          1           0        1.239397    1.256840   -0.926636
     19          1           0       -0.016770   -0.933053    0.507080
     20          1           0        2.400225    2.243399    1.011747
     21          1           0        0.650552    2.387502    1.240055
     22          1           0        1.555572    1.135127    2.114325
     23          1           0       -3.845664    1.171660    0.189411
     24          1           0       -3.635072    0.529734   -1.414865
     25          1           0       -4.953189   -0.988563    0.920458
     26          1           0       -5.809195   -0.255516   -0.439783
     27          1           0       -4.741471   -1.636954   -0.708337
 ---------------------------------------------------------------------
 Rotational constants (GHZ):           1.9613964           0.3305615           0.3023145
 Standard basis: 6-311+G(d,p) (5D, 7F)
 There are   383 symmetry adapted cartesian basis functions of A   symmetry.
 There are   370 symmetry adapted basis functions of A   symmetry.
   370 basis functions,   580 primitive gaussians,   383 cartesian basis functions
    50 alpha electrons       50 beta electrons
       nuclear repulsion energy       812.2453664848 Hartrees.
 NAtoms=   27 NActive=   27 NUniq=   27 SFac= 1.00D+00 NAtFMM=   60 NAOKFM=F Big=F
 Integral buffers will be    131072 words long.
 Raffenetti 2 integral format.
 Two-electron integral symmetry is turned on.
 ------------------------------------------------------------------------------
 Polarizable Continuum Model (PCM)
 =================================
 Model                : PCM.
 Atomic radii         : SMD-Coulomb.
 Polarization charges : Total charges.
 Charge compensation  : None.
 Solution method      : On-the-fly selection.
 Cavity type          : VdW (van der Waals Surface) (Alpha=1.000).
 Cavity algorithm     : GePol (No added spheres)
                        Default sphere list used, NSphG=   27.
                        Lebedev-Laikov grids with approx.  5.0 points / Ang**2.
                        Smoothing algorithm: York/Karplus (Gamma=1.0000).
                        Polarization charges: spherical gaussians, with
                                              point-specific exponents (IZeta= 3).
                        Self-potential: point-specific (ISelfS= 7).
                        Self-field    : sphere-specific E.n sum rule (ISelfD= 2).
 1st derivatives      : Analytical E(r).r(x)/FMM algorithm (CHGder, D1EAlg=3).
                        Cavity 1st derivative terms included.
 Solvent              : Water, Eps=  78.355300 Eps(inf)=   1.777849
 ------------------------------------------------------------------------------
 ------------------------------------------------------------------------------
 Atomic radii for non-electrostatic terms: SMD-CDS.
 ------------------------------------------------------------------------------
 Nuclear repulsion after PCM non-electrostatic terms =      812.2556577802 Hartrees.
 One-electron integrals computed using PRISM.
 NBasis=   370 RedAO= T EigKep=  4.98D-06  NBF=   370
 NBsUse=   370 1.00D-06 EigRej= -1.00D+00 NBFU=   370
 Initial guess from the checkpoint file:  "2KT_3D.chk"
 B after Tr=    -0.000000    0.000000   -0.000000
         Rot=    0.999992   -0.004041    0.000573    0.000492 Ang=  -0.47 deg.
 ExpMin= 4.38D-02 ExpMax= 8.59D+03 ExpMxC= 1.30D+03 IAcc=3 IRadAn=         5 AccDes= 0.00D+00
 Harris functional with IExCor= 1009 and IRadAn=       5 diagonalized for initial guess.
 HarFok:  IExCor= 1009 AccDes= 0.00D+00 IRadAn=         5 IDoV= 1 UseB2=F ITyADJ=14
 ICtDFT=  3500011 ScaDFX=  1.000000  1.000000  1.000000  1.000000
 FoFCou: FMM=F IPFlag=           0 FMFlag=      100000 FMFlg1=           0
         NFxFlg=           0 DoJE=T BraDBF=F KetDBF=T FulRan=T
         wScrn=  0.000000 ICntrl=       500 IOpCl=  0 I1Cent=   200000004 NGrid=           0
         NMat0=    1 NMatS0=      1 NMatT0=    0 NMatD0=    1 NMtDS0=    0 NMtDT0=    0
 Petite list used in FoFCou.
 Requested convergence on RMS density matrix=1.00D-08 within 128 cycles.
 Requested convergence on MAX density matrix=1.00D-06.
 Requested convergence on             energy=1.00D-06.
 No special actions if energy rises.
 Inv3:  Mode=1 IEnd=    11524800.
 Iteration    1 A*A^-1 deviation from unit magnitude is 1.13D-14 for    239.
 Iteration    1 A*A^-1 deviation from orthogonality  is 4.22D-15 for    273    251.
 Iteration    1 A^-1*A deviation from unit magnitude is 9.33D-15 for    239.
 Iteration    1 A^-1*A deviation from orthogonality  is 2.04D-15 for    711    210.
 Error on total polarization charges =  0.05798
 SCF Done:  E(RM052X) =  -648.621228121     A.U. after   12 cycles
            NFock= 12  Conv=0.82D-08     -V/T= 2.0038
 SMD-CDS (non-electrostatic) energy       (kcal/mol) =       6.46
 (included in total energy above)
 D1PCM: PCM CHGder 1st derivatives, ID1Alg=3 FixD1E=F DoIter=F DoCFld=F I1PDM=0.
 Calling FoFJK, ICntrl=      2127 FMM=F ISym2X=0 I1Cent= 0 IOpClX= 0 NMat=1 NMatS=1 NMatT=0.
 ***** Axes restored to original set *****
 -------------------------------------------------------------------
 Center     Atomic                   Forces (Hartrees/Bohr)
 Number     Number              X              Y              Z
 -------------------------------------------------------------------
      1        7           0.000360183   -0.000114203    0.000284872
      2        6           0.000008469    0.000155251    0.000005563
      3        6          -0.000800773    0.000672209   -0.000877705
      4        8           0.000417304   -0.000351845    0.000418166
      5        6          -0.000605901   -0.000188320   -0.000422694
      6        7          -0.000059660    0.000383194    0.000239436
      7        6          -0.000750123   -0.000169382    0.001119969
      8        6           0.000149121   -0.000299272    0.000462353
      9        6           0.000933344   -0.000493906    0.000012796
     10        8           0.000092845    0.000230904   -0.000488489
     11        6           0.000011391   -0.000608900    0.000125348
     12        8          -0.000046569    0.000292628   -0.000154081
     13        6          -0.000239687    0.000211407   -0.000069414
     14        1          -0.000004269   -0.000238537    0.000084776
     15        1           0.000023655   -0.000039075   -0.000001645
     16        1           0.000003789    0.000012928    0.000014135
     17        1          -0.000014875   -0.000021348   -0.000054746
     18        1           0.000221508    0.000133352   -0.000039278
     19        1           0.000224383    0.000115195   -0.000546010
     20        1           0.000000762    0.000042841   -0.000101324
     21        1           0.000130812    0.000067610    0.000099653
     22        1          -0.000000889    0.000035814   -0.000001115
     23        1          -0.000091924    0.000148598   -0.000054765
     24        1          -0.000042010    0.000117473   -0.000058304
     25        1           0.000014638   -0.000020026   -0.000036159
     26        1           0.000055447   -0.000047464    0.000010376
     27        1           0.000009030   -0.000027127    0.000028288
 -------------------------------------------------------------------
 Cartesian Forces:  Max     0.001119969 RMS     0.000317638

 GradGradGradGradGradGradGradGradGradGradGradGradGradGradGradGradGradGrad
 Berny optimization.
 Using GEDIIS/GDIIS optimizer.
 FormGI is forming the generalized inverse of G from B-inverse, IUseBI=4.
 Internal  Forces:  Max     0.000710785 RMS     0.000178423
 Search for a local minimum.
 Step number  12 out of a maximum of  135
 All quantities printed in internal units (Hartrees-Bohrs-Radians)
 Mixed Optimization -- En-DIIS/RFO-DIIS
 Swapping is turned off.
 Update second derivatives using D2CorX and points    5    6    7    8    9
                                                     10   11   12
 DE= -5.21D-05 DEPred=-6.34D-05 R= 8.21D-01
 TightC=F SS=  1.41D+00  RLast= 2.53D-01 DXNew= 4.5741D-01 7.5969D-01
 Trust test= 8.21D-01 RLast= 2.53D-01 DXMaxT set to 4.57D-01
 ITU=  1  0 -1  1  1 -1  1  1  0  1  1  0
     Eigenvalues ---    0.00130   0.00342   0.00370   0.00611   0.00682
     Eigenvalues ---    0.00830   0.00889   0.01361   0.01421   0.02307
     Eigenvalues ---    0.02386   0.03014   0.04005   0.04298   0.04402
     Eigenvalues ---    0.05054   0.05072   0.05453   0.05550   0.05667
     Eigenvalues ---    0.05749   0.05766   0.06527   0.07404   0.07653
     Eigenvalues ---    0.09205   0.13143   0.15337   0.15853   0.15973
     Eigenvalues ---    0.15995   0.16001   0.16009   0.16018   0.16039
     Eigenvalues ---    0.16053   0.16089   0.16475   0.17471   0.17766
     Eigenvalues ---    0.21074   0.21938   0.22052   0.24552   0.24992
     Eigenvalues ---    0.25186   0.25781   0.26900   0.27716   0.29557
     Eigenvalues ---    0.30219   0.32153   0.32743   0.34168   0.34772
     Eigenvalues ---    0.34807   0.34810   0.34811   0.34815   0.34818
     Eigenvalues ---    0.34824   0.34826   0.34837   0.34881   0.34929
     Eigenvalues ---    0.35093   0.36397   0.37259   0.53303   0.53632
     Eigenvalues ---    0.55704   0.57385   0.97844   0.98413   1.01209
 En-DIIS/RFO-DIIS/Sim-DIIS IScMMF=       -3 using points:    12   11   10    9    8    7    6    5    4    3
 RFO step:  Lambda=-6.63540139D-05.
 DidBck=T Rises=F RFO-DIIS coefs:   -0.55191    0.52125    0.84522   -2.00000    1.49003
                  RFO-DIIS coefs:    0.11511   -0.03703    0.22119    0.11252    0.28362
 Iteration  1 RMS(Cart)=  0.05558858 RMS(Int)=  0.00229776
 Iteration  2 RMS(Cart)=  0.00274709 RMS(Int)=  0.00005942
 Iteration  3 RMS(Cart)=  0.00000728 RMS(Int)=  0.00005931
 Iteration  4 RMS(Cart)=  0.00000000 RMS(Int)=  0.00005931
 Variable       Old X    -DE/DX   Delta X   Delta X   Delta X     New X
                                 (Linear)    (Quad)   (Total)
    R1        2.75037  -0.00010  -0.00017  -0.00005  -0.00022   2.75014
    R2        2.51260  -0.00029   0.00078  -0.00062   0.00016   2.51277
    R3        1.90534  -0.00024  -0.00011   0.00032   0.00021   1.90555
    R4        2.05680   0.00003   0.00006  -0.00000   0.00006   2.05686
    R5        2.05038   0.00001  -0.00004   0.00011   0.00007   2.05045
    R6        2.05697   0.00005  -0.00008   0.00016   0.00008   2.05705
    R7        2.33761   0.00041  -0.00029   0.00018  -0.00011   2.33749
    R8        2.87324  -0.00010   0.00332  -0.00117   0.00215   2.87539
    R9        2.74077   0.00004  -0.00073   0.00113   0.00040   2.74117
   R10        2.89484  -0.00053  -0.00107  -0.00097  -0.00204   2.89280
   R11        2.05797   0.00009   0.00094  -0.00014   0.00079   2.05877
   R12        2.50655  -0.00024  -0.00092  -0.00003  -0.00095   2.50559
   R13        1.91280  -0.00015   0.00024   0.00021   0.00045   1.91325
   R14        2.91132   0.00071   0.00176   0.00052   0.00229   2.91361
   R15        2.32595   0.00027   0.00046   0.00022   0.00068   2.32663
   R16        2.05800   0.00002  -0.00035   0.00016  -0.00019   2.05781
   R17        2.05676   0.00009   0.00008   0.00019   0.00028   2.05704
   R18        2.05976  -0.00002  -0.00002  -0.00017  -0.00019   2.05957
   R19        2.81674  -0.00034  -0.00070  -0.00003  -0.00072   2.81602
   R20        2.28812  -0.00030   0.00011  -0.00011   0.00000   2.28813
   R21        2.87010  -0.00021   0.00014  -0.00047  -0.00033   2.86978
   R22        2.06578   0.00013   0.00010   0.00004   0.00013   2.06591
   R23        2.06631   0.00003  -0.00018   0.00012  -0.00006   2.06625
   R24        2.05864   0.00004   0.00005  -0.00004   0.00001   2.05866
   R25        2.05708   0.00002  -0.00010   0.00018   0.00009   2.05716
   R26        2.05862   0.00004   0.00002  -0.00002   0.00001   2.05863
    A1        2.12033   0.00013  -0.00097  -0.00001  -0.00070   2.11962
    A2        2.09009  -0.00012  -0.00175  -0.00007  -0.00155   2.08855
    A3        2.07162  -0.00001   0.00300  -0.00028   0.00299   2.07461
    A4        1.92784  -0.00001   0.00079   0.00022   0.00101   1.92884
    A5        1.88893  -0.00001  -0.00066   0.00056  -0.00009   1.88884
    A6        1.92875  -0.00001   0.00028  -0.00027   0.00001   1.92876
    A7        1.90666   0.00001   0.00037  -0.00014   0.00023   1.90689
    A8        1.90307   0.00001  -0.00020  -0.00012  -0.00031   1.90276
    A9        1.90838   0.00002  -0.00061  -0.00026  -0.00086   1.90752
   A10        2.14728   0.00002  -0.00274   0.00019  -0.00241   2.14486
   A11        2.02047   0.00028  -0.00151   0.00240   0.00101   2.02148
   A12        2.11447  -0.00029   0.00453  -0.00258   0.00208   2.11655
   A13        1.87996  -0.00015  -0.00026  -0.00010  -0.00024   1.87972
   A14        1.90907   0.00039   0.01660  -0.00036   0.01624   1.92532
   A15        1.91158  -0.00004  -0.00881   0.00068  -0.00809   1.90348
   A16        1.95020  -0.00024  -0.00223  -0.00084  -0.00291   1.94729
   A17        1.89561   0.00003  -0.00443  -0.00016  -0.00452   1.89109
   A18        1.91682   0.00000  -0.00168   0.00079  -0.00090   1.91592
   A19        2.13115   0.00048   0.00137   0.00124   0.00268   2.13383
   A20        2.07002  -0.00002   0.00080   0.00150   0.00236   2.07238
   A21        2.08201  -0.00046  -0.00238  -0.00271  -0.00503   2.07697
   A22        1.99041  -0.00009  -0.00104  -0.00039  -0.00138   1.98903
   A23        2.18643   0.00013   0.00048   0.00064   0.00117   2.18760
   A24        2.10622  -0.00004   0.00050  -0.00023   0.00032   2.10654
   A25        1.91988   0.00020   0.00649  -0.00060   0.00589   1.92577
   A26        1.91292  -0.00025  -0.00321  -0.00052  -0.00373   1.90919
   A27        1.91960   0.00003   0.00096  -0.00038   0.00060   1.92020
   A28        1.89876   0.00001  -0.00304   0.00066  -0.00240   1.89636
   A29        1.90704  -0.00006  -0.00126   0.00044  -0.00079   1.90625
   A30        1.90542   0.00007  -0.00009   0.00043   0.00036   1.90578
   A31        2.02673   0.00003  -0.00021   0.00018   0.00001   2.02674
   A32        2.08048  -0.00010   0.00079  -0.00119  -0.00036   2.08012
   A33        2.17597   0.00007  -0.00069   0.00101   0.00036   2.17633
   A34        1.97115   0.00000  -0.00056   0.00078   0.00023   1.97138
   A35        1.86774  -0.00007  -0.00095  -0.00024  -0.00119   1.86655
   A36        1.86551  -0.00001   0.00043  -0.00015   0.00029   1.86580
   A37        1.95528   0.00007   0.00004  -0.00008  -0.00004   1.95524
   A38        1.95462   0.00007   0.00082  -0.00004   0.00078   1.95540
   A39        1.84160  -0.00008   0.00019  -0.00035  -0.00015   1.84144
   A40        1.93599  -0.00000   0.00012  -0.00015  -0.00003   1.93596
   A41        1.91671   0.00009  -0.00027   0.00043   0.00017   1.91688
   A42        1.93603  -0.00001   0.00043  -0.00021   0.00022   1.93626
   A43        1.89194  -0.00004  -0.00016  -0.00006  -0.00022   1.89172
   A44        1.88994  -0.00000  -0.00008   0.00011   0.00003   1.88998
   A45        1.89203  -0.00004  -0.00007  -0.00012  -0.00019   1.89184
    D1        1.08610  -0.00003  -0.01623   0.00325  -0.01302   1.07307
    D2       -3.11053  -0.00003  -0.01572   0.00356  -0.01220  -3.12273
    D3       -1.02133  -0.00003  -0.01670   0.00343  -0.01331  -1.03464
    D4       -2.10756  -0.00000   0.01289  -0.00480   0.00812  -2.09944
    D5       -0.02101   0.00000   0.01340  -0.00449   0.00895  -0.01206
    D6        2.06819   0.00001   0.01242  -0.00462   0.00784   2.07603
    D7       -0.04110  -0.00023   0.01506  -0.00343   0.01151  -0.02959
    D8        3.05358   0.00020   0.03617  -0.00347   0.03270   3.08628
    D9       -3.13116  -0.00026  -0.01389   0.00454  -0.00934  -3.14050
   D10       -0.03648   0.00017   0.00722   0.00450   0.01184  -0.02463
   D11        2.74619  -0.00021   0.12379  -0.02906   0.09480   2.84099
   D12       -1.41404  -0.00036   0.13126  -0.03036   0.10084  -1.31321
   D13        0.68755  -0.00015   0.13382  -0.02919   0.10473   0.79228
   D14       -0.44136   0.00023   0.14451  -0.02902   0.11549  -0.32587
   D15        1.68160   0.00007   0.15198  -0.03032   0.12152   1.80312
   D16       -2.50000   0.00029   0.15454  -0.02915   0.12542  -2.37458
   D17       -2.79761   0.00015   0.01494   0.01228   0.02726  -2.77035
   D18        0.34063   0.00034   0.00428   0.02405   0.02836   0.36899
   D19        1.38840  -0.00009  -0.00413   0.01330   0.00912   1.39752
   D20       -1.75655   0.00011  -0.01479   0.02507   0.01022  -1.74633
   D21       -0.72869   0.00004   0.00210   0.01295   0.01508  -0.71361
   D22        2.40954   0.00023  -0.00856   0.02472   0.01618   2.42572
   D23        1.13025   0.00012   0.00584  -0.00935  -0.00353   1.12672
   D24       -3.06602   0.00011   0.00404  -0.00923  -0.00518  -3.07120
   D25       -0.97109   0.00006   0.00257  -0.00926  -0.00669  -0.97778
   D26       -3.07291   0.00004   0.01529  -0.01023   0.00502  -3.06789
   D27       -0.98600   0.00002   0.01349  -0.01011   0.00337  -0.98263
   D28        1.10894  -0.00003   0.01201  -0.01014   0.00185   1.11079
   D29       -0.96814  -0.00007   0.00729  -0.01045  -0.00316  -0.97130
   D30        1.11877  -0.00009   0.00549  -0.01033  -0.00481   1.11396
   D31       -3.06947  -0.00014   0.00401  -0.01037  -0.00633  -3.07580
   D32        3.13722   0.00034   0.00470   0.00364   0.00834  -3.13763
   D33        0.01245  -0.00015  -0.00519   0.00302  -0.00216   0.01029
   D34       -0.00099   0.00014   0.01544  -0.00821   0.00722   0.00623
   D35       -3.12576  -0.00034   0.00555  -0.00884  -0.00328  -3.12904
   D36       -3.10707  -0.00029  -0.01267   0.00290  -0.00978  -3.11686
   D37        0.02977  -0.00019  -0.01035   0.00308  -0.00727   0.02250
   D38        0.01855   0.00017  -0.00332   0.00350   0.00019   0.01874
   D39       -3.12779   0.00028  -0.00099   0.00368   0.00270  -3.12510
   D40        3.13528   0.00008   0.00483   0.00046   0.00529   3.14057
   D41       -0.98823   0.00012   0.00384   0.00070   0.00454  -0.98369
   D42        0.97802  -0.00001   0.00384   0.00012   0.00396   0.98199
   D43       -0.00127  -0.00003   0.00236   0.00027   0.00263   0.00136
   D44        2.15840   0.00001   0.00137   0.00051   0.00188   2.16028
   D45       -2.15853  -0.00012   0.00137  -0.00007   0.00130  -2.15723
   D46        1.05007  -0.00003   0.00085   0.00036   0.00121   1.05128
   D47        3.14102  -0.00002   0.00056   0.00046   0.00102  -3.14114
   D48       -1.05108  -0.00002   0.00058   0.00046   0.00104  -1.05004
   D49       -1.06055   0.00000   0.00246   0.00016   0.00262  -1.05793
   D50        1.03040   0.00001   0.00216   0.00027   0.00244   1.03284
   D51        3.12149   0.00001   0.00218   0.00027   0.00245   3.12394
   D52       -3.12588   0.00001   0.00163   0.00069   0.00232  -3.12356
   D53       -1.03493   0.00002   0.00133   0.00080   0.00213  -1.03280
   D54        1.05616   0.00002   0.00135   0.00080   0.00214   1.05830
         Item               Value     Threshold  Converged?
 Maximum Force            0.000711     0.000450     NO 
 RMS     Force            0.000178     0.000300     YES
 Maximum Displacement     0.292072     0.001800     NO 
 RMS     Displacement     0.055823     0.001200     NO 
 Predicted change in Energy=-1.074787D-04
 GradGradGradGradGradGradGradGradGradGradGradGradGradGradGradGradGradGrad

                          Input orientation:                          
 ---------------------------------------------------------------------
 Center     Atomic      Atomic             Coordinates (Angstroms)
 Number     Number       Type             X           Y           Z
 ---------------------------------------------------------------------
      1          7           0       -3.490152    1.227792    0.874964
      2          6           0       -4.566423    0.394516    1.389965
      3          6           0       -2.321113    0.706648    0.514608
      4          8           0       -2.061788   -0.498233    0.619736
      5          6           0       -1.314232    1.682642   -0.076044
      6          7           0       -0.007704    1.054747   -0.022463
      7          6           0        1.116780    1.755965   -0.065411
      8          6           0       -1.705400    2.046492   -1.510603
      9          6           0        2.394349    0.895237   -0.000919
     10          8           0        1.188613    2.982642   -0.142570
     11          6           0        3.686646    1.637160   -0.012735
     12          8           0        2.292007   -0.309855    0.057161
     13          6           0        4.896027    0.721151    0.054576
     14          1           0       -3.636862    2.219001    0.761852
     15          1           0       -4.258526   -0.101650    2.308511
     16          1           0       -5.419953    1.031889    1.596311
     17          1           0       -4.849198   -0.359202    0.657249
     18          1           0       -1.288012    2.582029    0.538222
     19          1           0        0.045121    0.046439    0.052218
     20          1           0       -2.653405    2.582219   -1.520105
     21          1           0       -0.938943    2.687431   -1.942641
     22          1           0       -1.797941    1.142770   -2.112724
     23          1           0        3.690606    2.255898   -0.914015
     24          1           0        3.657325    2.340076    0.824285
     25          1           0        4.917026    0.041381   -0.796454
     26          1           0        5.809159    1.313708    0.043365
     27          1           0        4.883492    0.126207    0.967062
 ---------------------------------------------------------------------
                    Distance matrix (angstroms):
                    1          2          3          4          5
     1  N    0.000000
     2  C    1.455312   0.000000
     3  C    1.329699   2.430040   0.000000
     4  O    2.254890   2.768294   1.236948   0.000000
     5  C    2.417837   3.792783   1.521593   2.408146   0.000000
     6  N    3.600384   4.817964   2.400308   2.653946   1.450565
     7  C    4.731500   6.022496   3.640960   3.956530   2.432140
     8  C    3.089747   4.396336   2.505147   3.337811   1.530803
     9  C    5.958617   7.116012   4.747306   4.710003   3.791994
    10  O    5.099580   6.493650   4.234407   4.823143   2.821109
    11  C    7.243067   8.463148   6.102222   6.164772   5.001485
    12  O    6.038751   7.022148   4.745884   4.394031   4.122226
    13  C    8.441429   9.561795   7.231802   7.086431   6.285606
    14  H    1.008372   2.141811   2.019786   3.143949   2.526730
    15  H    2.100684   1.088443   2.761341   2.799089   4.187920
    16  H    2.069505   1.085051   3.298283   3.817361   4.480759
    17  H    2.100703   1.088543   2.747289   2.791127   4.147630
    18  H    2.607063   4.032203   2.141240   3.177009   1.089452
    19  H    3.817154   4.814256   2.499749   2.248958   2.131068
    20  H    2.875930   4.112686   2.787156   3.797120   2.165164
    21  H    4.071622   5.433446   3.445572   4.239695   2.152818
    22  H    3.434689   4.526943   2.714183   3.198257   2.161828
    23  H    7.471327   8.772206   6.370393   6.559548   5.106781
    24  H    7.233684   8.469665   6.205297   6.387965   5.095016
    25  H    8.653430   9.738631   7.385941   7.141472   6.483926
    26  H    9.336815  10.502901   8.166511   8.097353   7.133937
    27  H    8.446294   9.463178   7.242097   6.981939   6.474747
                    6          7          8          9         10
     6  N    0.000000
     7  C    1.325902   0.000000
     8  C    2.465825   3.183973   0.000000
     9  C    2.407440   1.541815   4.518017   0.000000
    10  O    2.272087   1.231198   3.335147   2.414772   0.000000
    11  C    3.739990   2.573150   5.611178   1.490175   2.840307
    12  O    2.675284   2.379873   4.897910   1.210824   3.478204
    13  C    4.915669   3.920198   6.912681   2.508342   4.347198
    14  H    3.891198   4.847254   2.987366   6.221710   4.968534
    15  H    4.983993   6.162804   5.071351   7.112525   6.722498
    16  H    5.649194   6.783398   4.947751   7.977038   7.106496
    17  H    5.089334   6.370954   4.513359   7.380770   6.947142
    18  H    2.070301   2.613384   2.158401   4.086039   2.599546
    19  H    1.012448   2.021081   3.083334   2.498430   3.157024
    20  H    3.402328   4.124697   1.088947   5.534768   4.101103
    21  H    2.686996   2.935578   1.088538   4.253596   2.802481
    22  H    2.753523   3.614291   1.089875   4.700669   4.023200
    23  H    3.989377   2.755838   5.432923   2.089360   2.717214
    24  H    3.975109   2.754472   5.856340   2.088930   2.728047
    25  H    5.087135   4.232741   6.956077   2.779541   4.793709
    26  H    5.822996   4.714429   7.708462   3.440640   4.916234
    27  H    5.075938   4.232049   7.296563   2.779250   4.800275
                   11         12         13         14         15
    11  C    0.000000
    12  O    2.395991   0.000000
    13  C    1.518620   2.800697   0.000000
    14  H    7.387306   6.484072   8.692180   0.000000
    15  H    8.457979   6.929748   9.463777   2.857279   0.000000
    16  H    9.267445   7.977693  10.435179   2.298907   1.772302
    17  H    8.791756   7.166543   9.823431   2.850935   1.772539
    18  H    5.093481   4.627196   6.476042   2.387236   4.377216
    19  H    3.974332   2.274965   4.897605   4.333660   4.861499
    20  H    6.584949   5.942134   7.933292   2.511263   4.943468
    21  H    5.120906   4.839625   6.473176   3.848698   6.072142
    22  H    5.893647   4.852442   7.048700   3.578141   5.210603
    23  H    1.093232   3.079343   2.178683   7.516759   8.895584
    24  H    1.093413   3.078101   2.178934   7.295459   8.415799
    25  H    2.162074   2.782580   1.089394   8.963222   9.687726
    26  H    2.147750   3.873823   1.088604   9.516464  10.415969
    27  H    2.162273   2.780983   1.089379   8.776009   9.242722
                   16         17         18         19         20
    16  H    0.000000
    17  H    1.772776   0.000000
    18  H    4.538219   4.620287   0.000000
    19  H    5.763885   4.948229   2.905625   0.000000
    20  H    4.446275   4.267825   2.470022   4.022987   0.000000
    21  H    5.945120   5.597454   2.507516   3.452924   1.768894
    22  H    5.185384   4.386210   3.059250   3.047260   1.776240
    23  H    9.529020   9.068399   5.196343   4.370912   6.381247
    24  H    9.203497   8.926082   4.959509   4.347973   6.736477
    25  H   10.656433   9.881946   6.836574   4.945273   8.018164
    26  H   11.339489  10.806297   7.226572   5.901709   8.698767
    27  H   10.362297   9.749711   6.656007   4.924747   8.307997
                   21         22         23         24         25
    21  H    0.000000
    22  H    1.775608   0.000000
    23  H    4.762039   5.727138   0.000000
    24  H    5.376078   6.310269   1.740655   0.000000
    25  H    6.527457   6.930830   2.534169   3.081824   0.000000
    26  H    7.167162   7.908597   2.508498   2.508716   1.766355
    27  H    6.994783   7.426980   3.081723   2.534776   1.765874
                   26         27
    26  H    0.000000
    27  H    1.766418   0.000000
 Stoichiometry    C8H14N2O3
 Framework group  C1[X(C8H14N2O3)]
 Deg. of freedom    75
 Full point group                 C1      NOp   1
 Largest Abelian subgroup         C1      NOp   1
 Largest concise Abelian subgroup C1      NOp   1
                         Standard orientation:                         
 ---------------------------------------------------------------------
 Center     Atomic      Atomic             Coordinates (Angstroms)
 Number     Number       Type             X           Y           Z
 ---------------------------------------------------------------------
      1          7           0        3.519215    0.069534   -0.490729
      2          6           0        4.675655   -0.813704   -0.512413
      3          6           0        2.344618   -0.336998   -0.018338
      4          8           0        2.149524   -1.484721    0.399645
      5          6           0        1.243616    0.712790    0.013063
      6          7           0       -0.022922    0.019520    0.152332
      7          6           0       -1.175798    0.575375   -0.193961
      8          6           0        1.477684    1.694069    1.164437
      9          6           0       -2.402325   -0.329140    0.039877
     10          8           0       -1.308228    1.703456   -0.669087
     11          6           0       -3.720823    0.236006   -0.363601
     12          8           0       -2.242349   -1.427081    0.524674
     13          6           0       -4.876863   -0.713756   -0.103347
     14          1           0        3.610881    1.019841   -0.815271
     15          1           0        4.480160   -1.682817   -1.137819
     16          1           0        5.516535   -0.261802   -0.919428
     17          1           0        4.918717   -1.148599    0.494411
     18          1           0        1.237821    1.250753   -0.934285
     19          1           0       -0.024214   -0.921770    0.525190
     20          1           0        2.396023    2.256229    1.001844
     21          1           0        0.645735    2.394045    1.217448
     22          1           0        1.550790    1.152361    2.107323
     23          1           0       -3.839093    1.182105    0.171249
     24          1           0       -3.641233    0.505527   -1.420283
     25          1           0       -4.950545   -0.955751    0.956271
     26          1           0       -5.811766   -0.251897   -0.415917
     27          1           0       -4.750018   -1.642676   -0.658112
 ---------------------------------------------------------------------
 Rotational constants (GHZ):           1.9763002           0.3307739           0.3015974
 Standard basis: 6-311+G(d,p) (5D, 7F)
 There are   383 symmetry adapted cartesian basis functions of A   symmetry.
 There are   370 symmetry adapted basis functions of A   symmetry.
   370 basis functions,   580 primitive gaussians,   383 cartesian basis functions
    50 alpha electrons       50 beta electrons
       nuclear repulsion energy       812.2531816601 Hartrees.
 NAtoms=   27 NActive=   27 NUniq=   27 SFac= 1.00D+00 NAtFMM=   60 NAOKFM=F Big=F
 Integral buffers will be    131072 words long.
 Raffenetti 2 integral format.
 Two-electron integral symmetry is turned on.
 ------------------------------------------------------------------------------
 Polarizable Continuum Model (PCM)
 =================================
 Model                : PCM.
 Atomic radii         : SMD-Coulomb.
 Polarization charges : Total charges.
 Charge compensation  : None.
 Solution method      : On-the-fly selection.
 Cavity type          : VdW (van der Waals Surface) (Alpha=1.000).
 Cavity algorithm     : GePol (No added spheres)
                        Default sphere list used, NSphG=   27.
                        Lebedev-Laikov grids with approx.  5.0 points / Ang**2.
                        Smoothing algorithm: York/Karplus (Gamma=1.0000).
                        Polarization charges: spherical gaussians, with
                                              point-specific exponents (IZeta= 3).
                        Self-potential: point-specific (ISelfS= 7).
                        Self-field    : sphere-specific E.n sum rule (ISelfD= 2).
 1st derivatives      : Analytical E(r).r(x)/FMM algorithm (CHGder, D1EAlg=3).
                        Cavity 1st derivative terms included.
 Solvent              : Water, Eps=  78.355300 Eps(inf)=   1.777849
 ------------------------------------------------------------------------------
 ------------------------------------------------------------------------------
 Atomic radii for non-electrostatic terms: SMD-CDS.
 ------------------------------------------------------------------------------
 Nuclear repulsion after PCM non-electrostatic terms =      812.2635033309 Hartrees.
 One-electron integrals computed using PRISM.
 NBasis=   370 RedAO= T EigKep=  5.04D-06  NBF=   370
 NBsUse=   370 1.00D-06 EigRej= -1.00D+00 NBFU=   370
 Initial guess from the checkpoint file:  "2KT_3D.chk"
 B after Tr=     0.000000   -0.000000   -0.000000
         Rot=    0.999999   -0.001003    0.000552    0.000556 Ang=  -0.15 deg.
 ExpMin= 4.38D-02 ExpMax= 8.59D+03 ExpMxC= 1.30D+03 IAcc=3 IRadAn=         5 AccDes= 0.00D+00
 Harris functional with IExCor= 1009 and IRadAn=       5 diagonalized for initial guess.
 HarFok:  IExCor= 1009 AccDes= 0.00D+00 IRadAn=         5 IDoV= 1 UseB2=F ITyADJ=14
 ICtDFT=  3500011 ScaDFX=  1.000000  1.000000  1.000000  1.000000
 FoFCou: FMM=F IPFlag=           0 FMFlag=      100000 FMFlg1=           0
         NFxFlg=           0 DoJE=T BraDBF=F KetDBF=T FulRan=T
         wScrn=  0.000000 ICntrl=       500 IOpCl=  0 I1Cent=   200000004 NGrid=           0
         NMat0=    1 NMatS0=      1 NMatT0=    0 NMatD0=    1 NMtDS0=    0 NMtDT0=    0
 Petite list used in FoFCou.
 Requested convergence on RMS density matrix=1.00D-08 within 128 cycles.
 Requested convergence on MAX density matrix=1.00D-06.
 Requested convergence on             energy=1.00D-06.
 No special actions if energy rises.
 Inv3:  Mode=1 IEnd=    11524800.
 Iteration    1 A*A^-1 deviation from unit magnitude is 8.44D-15 for    251.
 Iteration    1 A*A^-1 deviation from orthogonality  is 5.08D-15 for   1560    237.
 Iteration    1 A^-1*A deviation from unit magnitude is 8.22D-15 for    251.
 Iteration    1 A^-1*A deviation from orthogonality  is 1.69D-15 for   1287    371.
 Error on total polarization charges =  0.05801
 SCF Done:  E(RM052X) =  -648.621156910     A.U. after   13 cycles
            NFock= 13  Conv=0.54D-08     -V/T= 2.0038
 SMD-CDS (non-electrostatic) energy       (kcal/mol) =       6.48
 (included in total energy above)
 D1PCM: PCM CHGder 1st derivatives, ID1Alg=3 FixD1E=F DoIter=F DoCFld=F I1PDM=0.
 Calling FoFJK, ICntrl=      2127 FMM=F ISym2X=0 I1Cent= 0 IOpClX= 0 NMat=1 NMatS=1 NMatT=0.
 ***** Axes restored to original set *****
 -------------------------------------------------------------------
 Center     Atomic                   Forces (Hartrees/Bohr)
 Number     Number              X              Y              Z
 -------------------------------------------------------------------
      1        7           0.000094958    0.000410358    0.000083570
      2        6          -0.000157007    0.000002215   -0.000220961
      3        6           0.000118555   -0.000005398    0.000250032
      4        8          -0.000176889   -0.000337276   -0.000337540
      5        6           0.000107389    0.000037102    0.000038575
      6        7           0.000046472    0.000013871    0.000250173
      7        6          -0.000414604    0.000144606   -0.000083480
      8        6          -0.000011335   -0.000210981    0.000114767
      9        6           0.000410490   -0.000274427    0.000253596
     10        8           0.000157461   -0.000027257   -0.000008137
     11        6           0.000004331   -0.000485371   -0.000056980
     12        8          -0.000001635    0.000312470   -0.000124517
     13        6          -0.000118770    0.000199941    0.000002340
     14        1           0.000228688   -0.000393936   -0.000010266
     15        1           0.000094568    0.000027201   -0.000008816
     16        1           0.000018411    0.000037629    0.000020800
     17        1          -0.000042762   -0.000007826   -0.000011020
     18        1          -0.000059931    0.000075460   -0.000178103
     19        1          -0.000250977    0.000383023   -0.000080128
     20        1          -0.000064647   -0.000016144    0.000216661
     21        1           0.000085296   -0.000045567   -0.000033099
     22        1          -0.000033277   -0.000016801   -0.000061765
     23        1          -0.000018054    0.000149600   -0.000011682
     24        1          -0.000039023    0.000127373   -0.000009271
     25        1          -0.000006640   -0.000024613   -0.000027576
     26        1           0.000028353   -0.000050399    0.000006610
     27        1           0.000000577   -0.000024854    0.000026217
 -------------------------------------------------------------------
 Cartesian Forces:  Max     0.000485371 RMS     0.000167135

 GradGradGradGradGradGradGradGradGradGradGradGradGradGradGradGradGradGrad
 Berny optimization.
 Using GEDIIS/GDIIS optimizer.
 FormGI is forming the generalized inverse of G from B-inverse, IUseBI=4.
 Internal  Forces:  Max     0.000809311 RMS     0.000167059
 Search for a local minimum.
 Step number  13 out of a maximum of  135
 All quantities printed in internal units (Hartrees-Bohrs-Radians)
 Mixed Optimization -- En-DIIS/RFO-DIIS
 Swapping is turned off.
 Update second derivatives using D2CorX and points    3    4    5    6    7
                                                      8    9   10   11   12
                                                     13
 DE=  7.12D-05 DEPred=-1.07D-04 R=-6.63D-01
 Trust test=-6.63D-01 RLast= 2.82D-01 DXMaxT set to 2.29D-01
 ITU= -1  1  0 -1  1  1 -1  1  1  0  1  1  0
     Eigenvalues ---    0.00066   0.00311   0.00370   0.00516   0.00676
     Eigenvalues ---    0.00836   0.00886   0.01326   0.01428   0.02335
     Eigenvalues ---    0.02428   0.03165   0.04040   0.04181   0.04602
     Eigenvalues ---    0.05112   0.05184   0.05317   0.05556   0.05665
     Eigenvalues ---    0.05713   0.05787   0.06658   0.07396   0.07650
     Eigenvalues ---    0.09446   0.13184   0.15799   0.15896   0.15985
     Eigenvalues ---    0.15997   0.16002   0.16009   0.16024   0.16043
     Eigenvalues ---    0.16110   0.16227   0.16522   0.17471   0.17823
     Eigenvalues ---    0.21612   0.22003   0.22118   0.24757   0.24987
     Eigenvalues ---    0.25250   0.26148   0.27568   0.29137   0.29912
     Eigenvalues ---    0.31039   0.32180   0.34039   0.34109   0.34781
     Eigenvalues ---    0.34807   0.34811   0.34813   0.34815   0.34816
     Eigenvalues ---    0.34827   0.34832   0.34856   0.34893   0.35069
     Eigenvalues ---    0.35398   0.36441   0.37563   0.53363   0.54929
     Eigenvalues ---    0.58108   0.59652   0.98213   0.98634   1.02431
 En-DIIS/RFO-DIIS/Sim-DIIS IScMMF=       -3 using points:    13   12   11   10    9    8    7    6    5    4
 RFO step:  Lambda=-1.63001930D-04.
 DIIS inversion failure, remove point  10.
 DIIS inversion failure, remove point   9.
 DIIS inversion failure, remove point   8.
 DIIS inversion failure, remove point   7.
 RFO-DIIS uses    6 points instead of   10
 EnCoef did   100 forward-backward iterations
 EnCoef did   100 forward-backward iterations
 EnCoef did   100 forward-backward iterations
 EnCoef did   100 forward-backward iterations
 EnCoef did   100 forward-backward iterations
 EnCoef did   100 forward-backward iterations
 EnCoef did   100 forward-backward iterations
 DidBck=T Rises=T En-DIIS coefs:    0.32184    0.67816    0.00000    0.00000    0.00000
                  En-DIIS coefs:    0.00000    0.00000    0.00000    0.00000    0.00000
 Iteration  1 RMS(Cart)=  0.08194798 RMS(Int)=  0.00411138
 Iteration  2 RMS(Cart)=  0.00512518 RMS(Int)=  0.00004041
 Iteration  3 RMS(Cart)=  0.00002414 RMS(Int)=  0.00003818
 Iteration  4 RMS(Cart)=  0.00000000 RMS(Int)=  0.00003818
 Variable       Old X    -DE/DX   Delta X   Delta X   Delta X     New X
                                 (Linear)    (Quad)   (Total)
    R1        2.75014  -0.00005   0.00015  -0.00010   0.00005   2.75019
    R2        2.51277  -0.00021  -0.00011   0.00006  -0.00005   2.51272
    R3        1.90555  -0.00042  -0.00014   0.00073   0.00058   1.90613
    R4        2.05686   0.00001  -0.00004  -0.00018  -0.00022   2.05664
    R5        2.05045   0.00001  -0.00005  -0.00006  -0.00011   2.05034
    R6        2.05705   0.00002  -0.00005   0.00013   0.00008   2.05713
    R7        2.33749   0.00026   0.00008   0.00039   0.00047   2.33797
    R8        2.87539  -0.00004  -0.00146  -0.00231  -0.00377   2.87162
    R9        2.74117  -0.00038  -0.00027   0.00089   0.00062   2.74180
   R10        2.89280  -0.00028   0.00139   0.00031   0.00170   2.89450
   R11        2.05877  -0.00004  -0.00054  -0.00113  -0.00166   2.05710
   R12        2.50559   0.00004   0.00065   0.00062   0.00127   2.50686
   R13        1.91325  -0.00040  -0.00030   0.00029  -0.00001   1.91324
   R14        2.91361   0.00024  -0.00155  -0.00150  -0.00305   2.91056
   R15        2.32663  -0.00002  -0.00046   0.00031  -0.00015   2.32648
   R16        2.05781   0.00004   0.00013   0.00009   0.00022   2.05803
   R17        2.05704   0.00004  -0.00019   0.00020   0.00001   2.05705
   R18        2.05957   0.00006   0.00013  -0.00020  -0.00007   2.05950
   R19        2.81602  -0.00017   0.00049   0.00042   0.00091   2.81693
   R20        2.28813  -0.00032  -0.00000   0.00046   0.00046   2.28859
   R21        2.86978  -0.00015   0.00022   0.00097   0.00119   2.87097
   R22        2.06591   0.00010  -0.00009  -0.00039  -0.00049   2.06542
   R23        2.06625   0.00007   0.00004  -0.00032  -0.00028   2.06597
   R24        2.05866   0.00003  -0.00001  -0.00013  -0.00014   2.05851
   R25        2.05716  -0.00000  -0.00006   0.00002  -0.00004   2.05712
   R26        2.05863   0.00003  -0.00000  -0.00009  -0.00009   2.05853
    A1        2.11962   0.00030   0.00048  -0.00128  -0.00095   2.11867
    A2        2.08855   0.00002   0.00105   0.00032   0.00121   2.08976
    A3        2.07461  -0.00032  -0.00203   0.00037  -0.00181   2.07280
    A4        1.92884  -0.00016  -0.00068  -0.00031  -0.00099   1.92785
    A5        1.88884  -0.00004   0.00006  -0.00007  -0.00001   1.88883
    A6        1.92876   0.00009  -0.00001   0.00012   0.00011   1.92888
    A7        1.90689   0.00006  -0.00016   0.00004  -0.00012   1.90677
    A8        1.90276   0.00004   0.00021  -0.00002   0.00019   1.90295
    A9        1.90752   0.00001   0.00059   0.00024   0.00083   1.90835
   A10        2.14486   0.00031   0.00164   0.00070   0.00236   2.14723
   A11        2.02148  -0.00081  -0.00069   0.00322   0.00255   2.02403
   A12        2.11655   0.00050  -0.00141  -0.00388  -0.00527   2.11128
   A13        1.87972   0.00029   0.00017   0.00045   0.00058   1.88030
   A14        1.92532  -0.00055  -0.01102  -0.00350  -0.01451   1.91080
   A15        1.90348   0.00018   0.00549   0.00701   0.01251   1.91599
   A16        1.94729   0.00018   0.00197  -0.00255  -0.00059   1.94670
   A17        1.89109  -0.00016   0.00307  -0.00208   0.00098   1.89207
   A18        1.91592   0.00007   0.00061   0.00092   0.00156   1.91748
   A19        2.13383   0.00006  -0.00182  -0.00045  -0.00246   2.13137
   A20        2.07238  -0.00025  -0.00160   0.00288   0.00109   2.07347
   A21        2.07697   0.00019   0.00341  -0.00235   0.00087   2.07785
   A22        1.98903   0.00009   0.00094   0.00002   0.00096   1.98999
   A23        2.18760   0.00014  -0.00079  -0.00015  -0.00093   2.18667
   A24        2.10654  -0.00023  -0.00022   0.00017  -0.00004   2.10650
   A25        1.92577  -0.00032  -0.00400   0.00074  -0.00325   1.92252
   A26        1.90919   0.00004   0.00253  -0.00111   0.00142   1.91061
   A27        1.92020   0.00010  -0.00041  -0.00165  -0.00206   1.91815
   A28        1.89636   0.00016   0.00163   0.00131   0.00294   1.89930
   A29        1.90625   0.00008   0.00054   0.00051   0.00104   1.90729
   A30        1.90578  -0.00004  -0.00024   0.00023  -0.00001   1.90577
   A31        2.02674  -0.00003  -0.00001   0.00039   0.00038   2.02712
   A32        2.08012  -0.00002   0.00024   0.00047   0.00072   2.08083
   A33        2.17633   0.00005  -0.00024  -0.00086  -0.00110   2.17523
   A34        1.97138  -0.00000  -0.00015  -0.00074  -0.00089   1.97049
   A35        1.86655  -0.00001   0.00081  -0.00021   0.00059   1.86715
   A36        1.86580  -0.00001  -0.00020   0.00050   0.00031   1.86611
   A37        1.95524   0.00005   0.00003  -0.00108  -0.00105   1.95419
   A38        1.95540   0.00004  -0.00053  -0.00087  -0.00140   1.95400
   A39        1.84144  -0.00007   0.00010   0.00269   0.00280   1.84424
   A40        1.93596  -0.00002   0.00002   0.00015   0.00016   1.93613
   A41        1.91688   0.00008  -0.00011  -0.00109  -0.00120   1.91568
   A42        1.93626  -0.00001  -0.00015   0.00012  -0.00003   1.93623
   A43        1.89172  -0.00002   0.00015   0.00025   0.00041   1.89212
   A44        1.88998   0.00000  -0.00002   0.00046   0.00044   1.89041
   A45        1.89184  -0.00003   0.00013   0.00013   0.00026   1.89209
    D1        1.07307   0.00002   0.00883   0.00761   0.01645   1.08952
    D2       -3.12273  -0.00003   0.00827   0.00743   0.01571  -3.10702
    D3       -1.03464   0.00001   0.00902   0.00776   0.01678  -1.01785
    D4       -2.09944  -0.00002  -0.00551  -0.01507  -0.02058  -2.12002
    D5       -0.01206  -0.00007  -0.00607  -0.01525  -0.02132  -0.03338
    D6        2.07603  -0.00003  -0.00532  -0.01492  -0.02024   2.05579
    D7       -0.02959   0.00001  -0.00780  -0.01749  -0.02528  -0.05487
    D8        3.08628  -0.00019  -0.02217  -0.01566  -0.03783   3.04845
    D9       -3.14050   0.00004   0.00634   0.00501   0.01134  -3.12916
   D10       -0.02463  -0.00016  -0.00803   0.00684  -0.00121  -0.02584
   D11        2.84099  -0.00006  -0.06429  -0.08532  -0.14961   2.69138
   D12       -1.31321   0.00002  -0.06838  -0.09029  -0.15867  -1.47187
   D13        0.79228  -0.00012  -0.07102  -0.08688  -0.15793   0.63435
   D14       -0.32587  -0.00026  -0.07832  -0.08345  -0.16176  -0.48763
   D15        1.80312  -0.00019  -0.08241  -0.08842  -0.17082   1.63230
   D16       -2.37458  -0.00033  -0.08505  -0.08501  -0.17008  -2.54466
   D17       -2.77035  -0.00026  -0.01848   0.02516   0.00668  -2.76367
   D18        0.36899  -0.00022  -0.01923   0.06242   0.04319   0.41217
   D19        1.39752   0.00011  -0.00618   0.03076   0.02457   1.42209
   D20       -1.74633   0.00015  -0.00693   0.06801   0.06108  -1.68525
   D21       -0.71361   0.00002  -0.01023   0.03258   0.02235  -0.69126
   D22        2.42572   0.00006  -0.01098   0.06984   0.05886   2.48458
   D23        1.12672  -0.00007   0.00239  -0.01931  -0.01693   1.10979
   D24       -3.07120  -0.00006   0.00351  -0.01793  -0.01443  -3.08563
   D25       -0.97778  -0.00002   0.00454  -0.01935  -0.01482  -0.99260
   D26       -3.06789   0.00005  -0.00341  -0.02273  -0.02612  -3.09401
   D27       -0.98263   0.00007  -0.00229  -0.02135  -0.02362  -1.00625
   D28        1.11079   0.00010  -0.00126  -0.02277  -0.02402   1.08678
   D29       -0.97130   0.00001   0.00214  -0.02637  -0.02423  -0.99553
   D30        1.11396   0.00003   0.00326  -0.02499  -0.02173   1.09223
   D31       -3.07580   0.00006   0.00429  -0.02641  -0.02213  -3.09793
   D32       -3.13763   0.00001  -0.00565   0.01700   0.01134  -3.12629
   D33        0.01029  -0.00001   0.00147   0.01065   0.01211   0.02240
   D34        0.00623  -0.00003  -0.00489  -0.02036  -0.02526  -0.01903
   D35       -3.12904  -0.00004   0.00223  -0.02671  -0.02448   3.12966
   D36       -3.11686  -0.00005   0.00663   0.00064   0.00727  -3.10958
   D37        0.02250   0.00001   0.00493   0.00311   0.00804   0.03053
   D38        0.01874  -0.00003  -0.00013   0.00666   0.00654   0.02527
   D39       -3.12510   0.00003  -0.00183   0.00913   0.00730  -3.11780
   D40        3.14057   0.00001  -0.00359   0.00179  -0.00180   3.13878
   D41       -0.98369   0.00007  -0.00308  -0.00020  -0.00328  -0.98697
   D42        0.98199  -0.00003  -0.00269   0.00301   0.00032   0.98231
   D43        0.00136  -0.00005  -0.00178  -0.00083  -0.00261  -0.00125
   D44        2.16028   0.00000  -0.00128  -0.00282  -0.00409   2.15619
   D45       -2.15723  -0.00009  -0.00088   0.00039  -0.00049  -2.15772
   D46        1.05128  -0.00001  -0.00082   0.00067  -0.00015   1.05112
   D47       -3.14114   0.00000  -0.00069   0.00037  -0.00032  -3.14146
   D48       -1.05004   0.00001  -0.00070  -0.00009  -0.00079  -1.05084
   D49       -1.05793  -0.00003  -0.00178   0.00226   0.00048  -1.05744
   D50        1.03284  -0.00002  -0.00165   0.00197   0.00032   1.03315
   D51        3.12394  -0.00001  -0.00166   0.00151  -0.00016   3.12378
   D52       -3.12356   0.00000  -0.00157   0.00015  -0.00142  -3.12498
   D53       -1.03280   0.00001  -0.00145  -0.00014  -0.00159  -1.03439
   D54        1.05830   0.00002  -0.00145  -0.00061  -0.00206   1.05624
         Item               Value     Threshold  Converged?
 Maximum Force            0.000809     0.000450     NO 
 RMS     Force            0.000167     0.000300     YES
 Maximum Displacement     0.381650     0.001800     NO 
 RMS     Displacement     0.082383     0.001200     NO 
 Predicted change in Energy=-9.553939D-05
 GradGradGradGradGradGradGradGradGradGradGradGradGradGradGradGradGradGrad

                          Input orientation:                          
 ---------------------------------------------------------------------
 Center     Atomic      Atomic             Coordinates (Angstroms)
 Number     Number       Type             X           Y           Z
 ---------------------------------------------------------------------
      1          7           0       -3.441394    1.244122    0.961055
      2          6           0       -4.539036    0.419420    1.443820
      3          6           0       -2.336719    0.701472    0.457808
      4          8           0       -2.143246   -0.519849    0.417776
      5          6           0       -1.323720    1.673104   -0.124376
      6          7           0       -0.016858    1.047503   -0.048008
      7          6           0        1.105757    1.753848   -0.072706
      8          6           0       -1.705378    2.003398   -1.570527
      9          6           0        2.385502    0.899756   -0.001985
     10          8           0        1.172317    2.981449   -0.137679
     11          6           0        3.674529    1.648172    0.016295
     12          8           0        2.289662   -0.306913    0.036104
     13          6           0        4.886944    0.735677    0.090642
     14          1           0       -3.536746    2.248241    0.951419
     15          1           0       -4.213344   -0.195461    2.280658
     16          1           0       -5.337919    1.076122    1.772055
     17          1           0       -4.907664   -0.227895    0.650022
     18          1           0       -1.303727    2.584669    0.470299
     19          1           0        0.038609    0.037546   -0.003839
     20          1           0       -2.666650    2.514558   -1.597486
     21          1           0       -0.949168    2.654311   -2.005718
     22          1           0       -1.768858    1.086455   -2.156136
     23          1           0        3.690794    2.277709   -0.877021
     24          1           0        3.629786    2.338285    0.863036
     25          1           0        4.924164    0.067177   -0.768623
     26          1           0        5.796986    1.332939    0.101246
     27          1           0        4.862878    0.129288    0.995270
 ---------------------------------------------------------------------
                    Distance matrix (angstroms):
                    1          2          3          4          5
     1  N    0.000000
     2  C    1.455340   0.000000
     3  C    1.329675   2.429398   0.000000
     4  O    2.256531   2.770343   1.237198   0.000000
     5  C    2.418001   3.790675   1.519596   2.403038   0.000000
     6  N    3.575516   4.803138   2.399446   2.682363   1.450896
     7  C    4.690955   5.995351   3.638623   3.995784   2.431368
     8  C    3.162145   4.429999   2.491535   3.242198   1.531702
     9  C    5.915974   7.090155   4.748693   4.764560   3.790959
    10  O    5.050925   6.456367   4.226846   4.853923   2.818181
    11  C    7.189728   8.426762   6.101334   6.221577   5.000291
    12  O    6.008847   7.010016   4.753742   4.454401   4.123438
    13  C    8.389121   9.527864   7.233068   7.148911   6.284692
    14  H    1.008681   2.142808   2.018963   3.144668   2.526975
    15  H    2.099919   1.088325   2.765681   2.803723   4.198291
    16  H    2.069482   1.084993   3.297698   3.819310   4.479580
    17  H    2.100839   1.088585   2.740516   2.789477   4.130150
    18  H    2.570511   4.012887   2.147942   3.216454   1.088572
    19  H    3.807528   4.816262   2.509202   2.291056   2.132022
    20  H    2.959791   4.140648   2.760501   3.680061   2.163691
    21  H    4.123295   5.457215   3.436253   4.168265   2.154647
    22  H    3.541061   4.591133   2.702477   3.057024   2.161100
    23  H    7.437401   8.750408   6.371593   6.598398   5.106601
    24  H    7.156003   8.411242   6.200205   6.457173   5.094572
    25  H    8.623198   9.724769   7.391000   7.190301   6.483063
    26  H    9.278730  10.462809   8.165968   8.159676   7.132396
    27  H    8.378840   9.417078   7.242268   7.059791   6.473868
                    6          7          8          9         10
     6  N    0.000000
     7  C    1.326573   0.000000
     8  C    2.466353   3.195031   0.000000
     9  C    2.407338   1.540202   4.518146   0.000000
    10  O    2.272075   1.231120   3.360173   2.413230   0.000000
    11  C    3.740492   2.572485   5.620284   1.490656   2.839437
    12  O    2.676107   2.379118   4.886628   1.211067   3.477353
    13  C    4.915662   3.919277   6.915584   2.508529   4.346732
    14  H    3.851005   4.779759   3.126352   6.148204   4.888660
    15  H    4.957634   6.134408   5.094752   7.067865   6.704211
    16  H    5.623802   6.736722   5.022754   7.926509   7.047022
    17  H    5.102340   6.372666   4.490450   7.408574   6.920009
    18  H    2.070641   2.605903   2.159669   4.083184   2.580284
    19  H    1.012443   2.022187   3.059505   2.500263   3.157494
    20  H    3.402136   4.139407   1.089062   5.538722   4.133605
    21  H    2.698826   2.961434   1.088546   4.267720   2.845573
    22  H    2.741390   3.612410   1.089840   4.683366   4.039267
    23  H    3.993414   2.757494   5.447464   2.090032   2.717463
    24  H    3.974183   2.754614   5.873529   2.089467   2.730246
    25  H    5.088617   4.231949   6.952900   2.779519   4.792435
    26  H    5.822760   4.713285   7.715556   3.440426   4.915510
    27  H    5.073792   4.230334   7.296409   2.779484   4.799858
                   11         12         13         14         15
    11  C    0.000000
    12  O    2.395956   0.000000
    13  C    1.519251   2.799257   0.000000
    14  H    7.296371   6.427568   8.601589   0.000000
    15  H    8.410997   6.880372   9.406297   2.862924   0.000000
    16  H    9.199683   7.943947  10.367781   2.300333   1.772080
    17  H    8.807683   7.223893   9.857775   2.846314   1.772598
    18  H    5.085881   4.632732   6.472041   2.308903   4.412753
    19  H    3.976737   2.277605   4.899251   4.310783   4.832424
    20  H    6.600414   5.932481   7.941724   2.706457   4.977595
    21  H    5.145817   4.840238   6.491232   3.950331   6.095003
    22  H    5.887737   4.818606   7.033544   3.759265   5.225319
    23  H    1.092976   3.078513   2.178304   7.455294   8.863572
    24  H    1.093264   3.078444   2.178392   7.167643   8.363265
    25  H    2.162690   2.779952   1.089318   8.905200   9.636449
    26  H    2.147420   3.872297   1.088582   9.416960  10.358212
    27  H    2.162770   2.780596   1.089329   8.662885   9.172540
                   16         17         18         19         20
    16  H    0.000000
    17  H    1.773284   0.000000
    18  H    4.499443   4.575060   0.000000
    19  H    5.756691   4.996360   2.917963   0.000000
    20  H    4.534157   4.194577   2.477541   3.999215   0.000000
    21  H    6.001949   5.570436   2.502244   3.439576   1.770855
    22  H    5.307447   4.410685   3.059273   2.999921   1.776964
    23  H    9.485730   9.085339   5.182156   4.372555   6.402520
    24  H    9.101599   8.917326   4.955249   4.352175   6.762421
    25  H   10.619951   9.938031   6.830763   4.945141   8.018550
    26  H   11.262490  10.831754   7.219637   5.903219   8.712925
    27  H   10.274052   9.783162   6.658191   4.927495   8.312983
                   21         22         23         24         25
    21  H    0.000000
    22  H    1.775582   0.000000
    23  H    4.790098   5.732627   0.000000
    24  H    5.412619   6.310929   1.742180   0.000000
    25  H    6.536031   6.910908   2.533654   3.081502   0.000000
    26  H    7.189988   7.899273   2.507119   2.507549   1.766534
    27  H    7.011530   7.404555   3.081391   2.533312   1.766050
                   26         27
    26  H    0.000000
    27  H    1.766526   0.000000
 Stoichiometry    C8H14N2O3
 Framework group  C1[X(C8H14N2O3)]
 Deg. of freedom    75
 Full point group                 C1      NOp   1
 Largest Abelian subgroup         C1      NOp   1
 Largest concise Abelian subgroup C1      NOp   1
                         Standard orientation:                         
 ---------------------------------------------------------------------
 Center     Atomic      Atomic             Coordinates (Angstroms)
 Number     Number       Type             X           Y           Z
 ---------------------------------------------------------------------
      1          7           0        3.470977    0.040415   -0.604645
      2          6           0        4.645225   -0.819317   -0.608636
      3          6           0        2.349752   -0.321435    0.011757
      4          8           0        2.208902   -1.418453    0.566167
      5          6           0        1.243723    0.720033    0.046651
      6          7           0       -0.020562    0.018194    0.165405
      7          6           0       -1.171394    0.572716   -0.192208
      8          6           0        1.472936    1.669243    1.226723
      9          6           0       -2.398888   -0.329997    0.032714
     10          8           0       -1.299282    1.699315   -0.671871
     11          6           0       -3.713112    0.230362   -0.392571
     12          8           0       -2.245344   -1.423839    0.529319
     13          6           0       -4.870655   -0.720956   -0.141155
     14          1           0        3.519427    0.955425   -1.026366
     15          1           0        4.427511   -1.758250   -1.114063
     16          1           0        5.440764   -0.304617   -1.137231
     17          1           0        4.966846   -1.030600    0.409665
     18          1           0        1.238232    1.282879   -0.885102
     19          1           0       -0.025845   -0.913652    0.561228
     20          1           0        2.403317    2.218804    1.090962
     21          1           0        0.650595    2.380028    1.285651
     22          1           0        1.522772    1.101206    2.155487
     23          1           0       -3.841451    1.178899    0.135068
     24          1           0       -3.620584    0.491048   -1.450261
     25          1           0       -4.957852   -0.956212    0.918876
     26          1           0       -5.801822   -0.262402   -0.469283
     27          1           0       -4.734547   -1.652897   -0.688512
 ---------------------------------------------------------------------
 Rotational constants (GHZ):           1.9412660           0.3304249           0.3038135
 Standard basis: 6-311+G(d,p) (5D, 7F)
 There are   383 symmetry adapted cartesian basis functions of A   symmetry.
 There are   370 symmetry adapted basis functions of A   symmetry.
   370 basis functions,   580 primitive gaussians,   383 cartesian basis functions
    50 alpha electrons       50 beta electrons
       nuclear repulsion energy       812.1372193181 Hartrees.
 NAtoms=   27 NActive=   27 NUniq=   27 SFac= 1.00D+00 NAtFMM=   60 NAOKFM=F Big=F
 Integral buffers will be    131072 words long.
 Raffenetti 2 integral format.
 Two-electron integral symmetry is turned on.
 ------------------------------------------------------------------------------
 Polarizable Continuum Model (PCM)
 =================================
 Model                : PCM.
 Atomic radii         : SMD-Coulomb.
 Polarization charges : Total charges.
 Charge compensation  : None.
 Solution method      : On-the-fly selection.
 Cavity type          : VdW (van der Waals Surface) (Alpha=1.000).
 Cavity algorithm     : GePol (No added spheres)
                        Default sphere list used, NSphG=   27.
                        Lebedev-Laikov grids with approx.  5.0 points / Ang**2.
                        Smoothing algorithm: York/Karplus (Gamma=1.0000).
                        Polarization charges: spherical gaussians, with
                                              point-specific exponents (IZeta= 3).
                        Self-potential: point-specific (ISelfS= 7).
                        Self-field    : sphere-specific E.n sum rule (ISelfD= 2).
 1st derivatives      : Analytical E(r).r(x)/FMM algorithm (CHGder, D1EAlg=3).
                        Cavity 1st derivative terms included.
 Solvent              : Water, Eps=  78.355300 Eps(inf)=   1.777849
 ------------------------------------------------------------------------------
 ------------------------------------------------------------------------------
 Atomic radii for non-electrostatic terms: SMD-CDS.
 ------------------------------------------------------------------------------
 Nuclear repulsion after PCM non-electrostatic terms =      812.1475378539 Hartrees.
 One-electron integrals computed using PRISM.
 NBasis=   370 RedAO= T EigKep=  5.20D-06  NBF=   370
 NBsUse=   370 1.00D-06 EigRej= -1.00D+00 NBFU=   370
 Initial guess from the checkpoint file:  "2KT_3D.chk"
 B after Tr=     0.000000    0.000000   -0.000000
         Rot=    0.999997    0.002335   -0.000621   -0.000542 Ang=   0.28 deg.
 ExpMin= 4.38D-02 ExpMax= 8.59D+03 ExpMxC= 1.30D+03 IAcc=3 IRadAn=         5 AccDes= 0.00D+00
 Harris functional with IExCor= 1009 and IRadAn=       5 diagonalized for initial guess.
 HarFok:  IExCor= 1009 AccDes= 0.00D+00 IRadAn=         5 IDoV= 1 UseB2=F ITyADJ=14
 ICtDFT=  3500011 ScaDFX=  1.000000  1.000000  1.000000  1.000000
 FoFCou: FMM=F IPFlag=           0 FMFlag=      100000 FMFlg1=           0
         NFxFlg=           0 DoJE=T BraDBF=F KetDBF=T FulRan=T
         wScrn=  0.000000 ICntrl=       500 IOpCl=  0 I1Cent=   200000004 NGrid=           0
         NMat0=    1 NMatS0=      1 NMatT0=    0 NMatD0=    1 NMtDS0=    0 NMtDT0=    0
 Petite list used in FoFCou.
 Requested convergence on RMS density matrix=1.00D-08 within 128 cycles.
 Requested convergence on MAX density matrix=1.00D-06.
 Requested convergence on             energy=1.00D-06.
 No special actions if energy rises.
 Inv3:  Mode=1 IEnd=    11513043.
 Iteration    1 A*A^-1 deviation from unit magnitude is 8.44D-15 for    213.
 Iteration    1 A*A^-1 deviation from orthogonality  is 3.38D-15 for   1762    223.
 Iteration    1 A^-1*A deviation from unit magnitude is 8.44D-15 for    213.
 Iteration    1 A^-1*A deviation from orthogonality  is 4.87D-14 for   1322   1299.
 Error on total polarization charges =  0.05799
 SCF Done:  E(RM052X) =  -648.621274638     A.U. after   13 cycles
            NFock= 13  Conv=0.78D-08     -V/T= 2.0038
 SMD-CDS (non-electrostatic) energy       (kcal/mol) =       6.47
 (included in total energy above)
 D1PCM: PCM CHGder 1st derivatives, ID1Alg=3 FixD1E=F DoIter=F DoCFld=F I1PDM=0.
 Calling FoFJK, ICntrl=      2127 FMM=F ISym2X=0 I1Cent= 0 IOpClX= 0 NMat=1 NMatS=1 NMatT=0.
 ***** Axes restored to original set *****
 -------------------------------------------------------------------
 Center     Atomic                   Forces (Hartrees/Bohr)
 Number     Number              X              Y              Z
 -------------------------------------------------------------------
      1        7           0.000216362    0.000146730   -0.000257275
      2        6          -0.000134562    0.000177596    0.000070129
      3        6          -0.000244474    0.000526023    0.000213673
      4        8           0.000089511   -0.000335934   -0.000031756
      5        6          -0.000364406   -0.000135060   -0.000714982
      6        7           0.000376532    0.000246741    0.000333963
      7        6          -0.001114540    0.000193714   -0.000105215
      8        6           0.000180956   -0.000304211    0.000522831
      9        6           0.001228959   -0.000890864    0.000316100
     10        8           0.000191633   -0.000076495   -0.000022219
     11        6           0.000134893   -0.001143724    0.000042502
     12        8          -0.000160427    0.000650749   -0.000140846
     13        6          -0.000344021    0.000497501   -0.000031887
     14        1           0.000177860   -0.000594303    0.000040727
     15        1           0.000047344   -0.000013842    0.000022233
     16        1          -0.000015051    0.000011397    0.000029304
     17        1          -0.000006808   -0.000004758   -0.000038501
     18        1          -0.000009151    0.000057765    0.000108094
     19        1          -0.000201059    0.000418052   -0.000163678
     20        1          -0.000037026    0.000068892    0.000019784
     21        1           0.000138780    0.000019103    0.000013223
     22        1          -0.000080332    0.000023278   -0.000107899
     23        1          -0.000090746    0.000342781   -0.000020629
     24        1          -0.000082435    0.000317908   -0.000093737
     25        1           0.000001964   -0.000040306   -0.000050592
     26        1           0.000094210   -0.000110308    0.000008491
     27        1           0.000006034   -0.000048427    0.000038161
 -------------------------------------------------------------------
 Cartesian Forces:  Max     0.001228959 RMS     0.000332148

 GradGradGradGradGradGradGradGradGradGradGradGradGradGradGradGradGradGrad
 Berny optimization.
 Using GEDIIS/GDIIS optimizer.
 FormGI is forming the generalized inverse of G from B-inverse, IUseBI=4.
 Internal  Forces:  Max     0.000869534 RMS     0.000180901
 Search for a local minimum.
 Step number  14 out of a maximum of  135
 All quantities printed in internal units (Hartrees-Bohrs-Radians)
 Mixed Optimization -- En-DIIS/RFO-DIIS
 Swapping is turned off.
 Update second derivatives using D2CorX and points    7    8    9   10   11
                                                     12   13   14
 DE= -1.18D-04 DEPred=-9.55D-05 R= 1.23D+00
 TightC=F SS=  1.41D+00  RLast= 4.21D-01 DXNew= 3.8463D-01 1.2644D+00
 Trust test= 1.23D+00 RLast= 4.21D-01 DXMaxT set to 3.85D-01
 ITU=  1 -1  1  0 -1  1  1 -1  1  1  0  1  1  0
     Eigenvalues ---    0.00072   0.00360   0.00373   0.00520   0.00671
     Eigenvalues ---    0.00835   0.00879   0.01310   0.01407   0.02331
     Eigenvalues ---    0.02372   0.03040   0.03998   0.04187   0.04566
     Eigenvalues ---    0.05169   0.05276   0.05327   0.05566   0.05674
     Eigenvalues ---    0.05721   0.05795   0.06494   0.07398   0.07651
     Eigenvalues ---    0.09346   0.13124   0.15525   0.15869   0.15979
     Eigenvalues ---    0.16001   0.16002   0.16005   0.16032   0.16055
     Eigenvalues ---    0.16092   0.16267   0.16526   0.17334   0.17700
     Eigenvalues ---    0.21248   0.22001   0.22197   0.24467   0.24996
     Eigenvalues ---    0.25225   0.26077   0.27877   0.29219   0.29900
     Eigenvalues ---    0.31269   0.32200   0.32917   0.34062   0.34791
     Eigenvalues ---    0.34806   0.34807   0.34811   0.34815   0.34816
     Eigenvalues ---    0.34821   0.34834   0.34854   0.34884   0.34938
     Eigenvalues ---    0.35443   0.36449   0.37730   0.53310   0.54141
     Eigenvalues ---    0.57311   0.60026   0.97909   0.98587   1.03311
 En-DIIS/RFO-DIIS/Sim-DIIS IScMMF=       -3 using points:    14   13   12   11   10    9    8    7    6    5
 RFO step:  Lambda=-2.22141294D-05.
 DIIS inversion failure, remove point  10.
 DIIS inversion failure, remove point   9.
 DIIS inversion failure, remove point   8.
 DIIS inversion failure, remove point   7.
 RFO-DIIS uses    6 points instead of   10
 DidBck=T Rises=F RFO-DIIS coefs:    0.60133    0.69771   -1.58811    0.93066    0.15596
                  RFO-DIIS coefs:    0.20245    0.00000    0.00000    0.00000    0.00000
 Iteration  1 RMS(Cart)=  0.01557411 RMS(Int)=  0.00018656
 Iteration  2 RMS(Cart)=  0.00022294 RMS(Int)=  0.00002069
 Iteration  3 RMS(Cart)=  0.00000006 RMS(Int)=  0.00002069
 Variable       Old X    -DE/DX   Delta X   Delta X   Delta X     New X
                                 (Linear)    (Quad)   (Total)
    R1        2.75019   0.00002  -0.00003  -0.00017  -0.00020   2.74999
    R2        2.51272  -0.00041  -0.00010  -0.00051  -0.00061   2.51211
    R3        1.90613  -0.00061   0.00010  -0.00073  -0.00063   1.90550
    R4        2.05664   0.00004   0.00006  -0.00001   0.00005   2.05668
    R5        2.05034   0.00002   0.00006   0.00002   0.00009   2.05043
    R6        2.05713   0.00003   0.00002   0.00003   0.00005   2.05718
    R7        2.33797   0.00035  -0.00007   0.00026   0.00018   2.33815
    R8        2.87162  -0.00000   0.00105   0.00009   0.00113   2.87275
    R9        2.74180  -0.00013   0.00000   0.00004   0.00004   2.74184
   R10        2.89450  -0.00051  -0.00065  -0.00111  -0.00176   2.89274
   R11        2.05710   0.00010   0.00039   0.00010   0.00049   2.05760
   R12        2.50686  -0.00025  -0.00034  -0.00062  -0.00095   2.50591
   R13        1.91324  -0.00043   0.00024  -0.00052  -0.00029   1.91295
   R14        2.91056   0.00087   0.00085   0.00221   0.00307   2.91363
   R15        2.32648  -0.00006   0.00018  -0.00003   0.00015   2.32663
   R16        2.05803   0.00006  -0.00013   0.00021   0.00008   2.05811
   R17        2.05705   0.00010   0.00006   0.00015   0.00021   2.05726
   R18        2.05950   0.00005  -0.00002   0.00001  -0.00000   2.05950
   R19        2.81693  -0.00031  -0.00017  -0.00107  -0.00124   2.81569
   R20        2.28859  -0.00064  -0.00008  -0.00041  -0.00049   2.28810
   R21        2.87097  -0.00039  -0.00033  -0.00094  -0.00127   2.86970
   R22        2.06542   0.00022   0.00009   0.00042   0.00051   2.06594
   R23        2.06597   0.00013   0.00004   0.00030   0.00034   2.06631
   R24        2.05851   0.00006   0.00000   0.00015   0.00015   2.05866
   R25        2.05712   0.00002   0.00007  -0.00003   0.00004   2.05716
   R26        2.05853   0.00006  -0.00000   0.00015   0.00014   2.05868
    A1        2.11867   0.00039   0.00003   0.00108   0.00122   2.11989
    A2        2.08976  -0.00010  -0.00052   0.00001  -0.00040   2.08936
    A3        2.07280  -0.00028   0.00062  -0.00085  -0.00012   2.07268
    A4        1.92785  -0.00006   0.00035  -0.00017   0.00017   1.92803
    A5        1.88883   0.00003   0.00023  -0.00034  -0.00011   1.88872
    A6        1.92888  -0.00001  -0.00003   0.00008   0.00004   1.92892
    A7        1.90677   0.00001  -0.00010   0.00023   0.00013   1.90690
    A8        1.90295   0.00003  -0.00011   0.00032   0.00021   1.90316
    A9        1.90835   0.00001  -0.00034  -0.00012  -0.00046   1.90789
   A10        2.14723   0.00014  -0.00101   0.00079  -0.00019   2.14704
   A11        2.02403  -0.00017   0.00018  -0.00094  -0.00074   2.02329
   A12        2.11128   0.00004   0.00096   0.00018   0.00116   2.11245
   A13        1.88030  -0.00007   0.00028  -0.00049  -0.00017   1.88013
   A14        1.91080   0.00014   0.00442   0.00134   0.00576   1.91657
   A15        1.91599  -0.00003  -0.00319  -0.00057  -0.00376   1.91223
   A16        1.94670  -0.00005  -0.00035   0.00016  -0.00015   1.94654
   A17        1.89207  -0.00000  -0.00118  -0.00060  -0.00177   1.89030
   A18        1.91748   0.00001  -0.00018   0.00012  -0.00009   1.91738
   A19        2.13137   0.00051   0.00078   0.00155   0.00235   2.13373
   A20        2.07347  -0.00043   0.00035  -0.00094  -0.00058   2.07289
   A21        2.07785  -0.00008  -0.00100  -0.00069  -0.00167   2.07618
   A22        1.98999  -0.00001  -0.00032  -0.00042  -0.00074   1.98925
   A23        2.18667   0.00023   0.00041   0.00052   0.00093   2.18760
   A24        2.10650  -0.00022  -0.00004  -0.00014  -0.00018   2.10632
   A25        1.92252  -0.00003   0.00120  -0.00022   0.00099   1.92351
   A26        1.91061  -0.00014  -0.00072  -0.00050  -0.00123   1.90938
   A27        1.91815   0.00020   0.00022   0.00111   0.00133   1.91948
   A28        1.89930   0.00006  -0.00068  -0.00011  -0.00079   1.89851
   A29        1.90729  -0.00006  -0.00016  -0.00025  -0.00040   1.90690
   A30        1.90577  -0.00002   0.00011  -0.00004   0.00007   1.90584
   A31        2.02712  -0.00006  -0.00013  -0.00028  -0.00040   2.02672
   A32        2.08083  -0.00022  -0.00041  -0.00025  -0.00066   2.08017
   A33        2.17523   0.00027   0.00054   0.00052   0.00107   2.17630
   A34        1.97049   0.00007   0.00048   0.00035   0.00083   1.97132
   A35        1.86715  -0.00007  -0.00029  -0.00052  -0.00081   1.86634
   A36        1.86611  -0.00005  -0.00016   0.00007  -0.00010   1.86601
   A37        1.95419   0.00010   0.00019   0.00089   0.00108   1.95527
   A38        1.95400   0.00011   0.00021   0.00120   0.00141   1.95541
   A39        1.84424  -0.00019  -0.00052  -0.00225  -0.00276   1.84148
   A40        1.93613  -0.00004  -0.00001  -0.00013  -0.00015   1.93598
   A41        1.91568   0.00020   0.00027   0.00094   0.00121   1.91689
   A42        1.93623  -0.00002  -0.00005   0.00008   0.00003   1.93626
   A43        1.89212  -0.00007  -0.00009  -0.00029  -0.00039   1.89174
   A44        1.89041  -0.00000  -0.00003  -0.00036  -0.00038   1.89003
   A45        1.89209  -0.00008  -0.00010  -0.00026  -0.00036   1.89173
    D1        1.08952  -0.00004  -0.00473  -0.00399  -0.00873   1.08079
    D2       -3.10702  -0.00005  -0.00450  -0.00402  -0.00853  -3.11556
    D3       -1.01785  -0.00003  -0.00480  -0.00433  -0.00914  -1.02699
    D4       -2.12002   0.00001   0.00452   0.00011   0.00465  -2.11537
    D5       -0.03338   0.00001   0.00475   0.00008   0.00484  -0.02854
    D6        2.05579   0.00003   0.00445  -0.00023   0.00424   2.06003
    D7       -0.05487   0.00000   0.00502   0.00228   0.00726  -0.04761
    D8        3.04845   0.00003   0.01216   0.00295   0.01511   3.06356
    D9       -3.12916  -0.00006  -0.00417  -0.00181  -0.00598  -3.13514
   D10       -0.02584  -0.00003   0.00297  -0.00114   0.00187  -0.02397
   D11        2.69138  -0.00006   0.02816  -0.00167   0.02650   2.71788
   D12       -1.47187  -0.00008   0.03063  -0.00098   0.02963  -1.44224
   D13        0.63435  -0.00000   0.03108  -0.00035   0.03077   0.66513
   D14       -0.48763  -0.00003   0.03516  -0.00100   0.03415  -0.45348
   D15        1.63230  -0.00005   0.03764  -0.00031   0.03728   1.66958
   D16       -2.54466   0.00003   0.03809   0.00032   0.03842  -2.50624
   D17       -2.76367   0.00001   0.00232   0.00084   0.00316  -2.76051
   D18        0.41217   0.00010  -0.00440   0.00352  -0.00086   0.41132
   D19        1.42209  -0.00009  -0.00312  -0.00059  -0.00374   1.41836
   D20       -1.68525   0.00000  -0.00985   0.00209  -0.00775  -1.69300
   D21       -0.69126  -0.00007  -0.00191  -0.00044  -0.00236  -0.69362
   D22        2.48458   0.00002  -0.00863   0.00224  -0.00637   2.47821
   D23        1.10979   0.00008   0.00142   0.00341   0.00482   1.11462
   D24       -3.08563   0.00004   0.00087   0.00283   0.00370  -3.08193
   D25       -0.99260   0.00005   0.00069   0.00315   0.00384  -0.98877
   D26       -3.09401   0.00005   0.00452   0.00377   0.00827  -3.08574
   D27       -1.00625   0.00001   0.00397   0.00319   0.00715  -0.99910
   D28        1.08678   0.00002   0.00379   0.00350   0.00729   1.09406
   D29       -0.99553   0.00003   0.00270   0.00319   0.00589  -0.98964
   D30        1.09223  -0.00001   0.00215   0.00261   0.00477   1.09700
   D31       -3.09793  -0.00000   0.00197   0.00293   0.00491  -3.09302
   D32       -3.12629   0.00007  -0.00033   0.00109   0.00074  -3.12555
   D33        0.02240   0.00002  -0.00647   0.00583  -0.00066   0.02175
   D34       -0.01903  -0.00003   0.00637  -0.00160   0.00479  -0.01424
   D35        3.12966  -0.00007   0.00024   0.00313   0.00339   3.13305
   D36       -3.10958  -0.00008  -0.00490   0.00291  -0.00199  -3.11157
   D37        0.03053   0.00001  -0.00440   0.00286  -0.00155   0.02899
   D38        0.02527  -0.00004   0.00092  -0.00158  -0.00066   0.02461
   D39       -3.11780   0.00005   0.00141  -0.00163  -0.00022  -3.11801
   D40        3.13878   0.00005   0.00045   0.00061   0.00106   3.13984
   D41       -0.98697   0.00017   0.00079   0.00160   0.00238  -0.98458
   D42        0.98231  -0.00010  -0.00001  -0.00118  -0.00118   0.98113
   D43       -0.00125  -0.00004  -0.00008   0.00067   0.00059  -0.00066
   D44        2.15619   0.00008   0.00026   0.00165   0.00191   2.15811
   D45       -2.15772  -0.00019  -0.00053  -0.00112  -0.00165  -2.15937
   D46        1.05112  -0.00003  -0.00014   0.00053   0.00039   1.05151
   D47       -3.14146  -0.00001  -0.00008   0.00068   0.00060  -3.14087
   D48       -1.05084   0.00001  -0.00006   0.00101   0.00095  -1.04989
   D49       -1.05744  -0.00006  -0.00024   0.00029   0.00006  -1.05739
   D50        1.03315  -0.00004  -0.00019   0.00045   0.00026   1.03342
   D51        3.12378  -0.00002  -0.00016   0.00078   0.00062   3.12440
   D52       -3.12498   0.00003   0.00015   0.00174   0.00189  -3.12309
   D53       -1.03439   0.00005   0.00020   0.00190   0.00210  -1.03229
   D54        1.05624   0.00008   0.00023   0.00223   0.00245   1.05869
         Item               Value     Threshold  Converged?
 Maximum Force            0.000870     0.000450     NO 
 RMS     Force            0.000181     0.000300     YES
 Maximum Displacement     0.079649     0.001800     NO 
 RMS     Displacement     0.015574     0.001200     NO 
 Predicted change in Energy=-3.761527D-06
 GradGradGradGradGradGradGradGradGradGradGradGradGradGradGradGradGradGrad

                          Input orientation:                          
 ---------------------------------------------------------------------
 Center     Atomic      Atomic             Coordinates (Angstroms)
 Number     Number       Type             X           Y           Z
 ---------------------------------------------------------------------
      1          7           0       -3.452563    1.240721    0.940763
      2          6           0       -4.541759    0.414791    1.439953
      3          6           0       -2.334779    0.701284    0.464591
      4          8           0       -2.124233   -0.517947    0.457936
      5          6           0       -1.323950    1.674384   -0.120471
      6          7           0       -0.016082    1.050613   -0.045975
      7          6           0        1.106678    1.755818   -0.069488
      8          6           0       -1.704071    2.011570   -1.564450
      9          6           0        2.386464    0.898617   -0.001857
     10          8           0        1.175384    2.983481   -0.132534
     11          6           0        3.675900    1.645059    0.014968
     12          8           0        2.287915   -0.307625    0.034574
     13          6           0        4.887561    0.732315    0.084679
     14          1           0       -3.559230    2.242914    0.909271
     15          1           0       -4.212096   -0.174690    2.293380
     16          1           0       -5.350196    1.069585    1.748148
     17          1           0       -4.899257   -0.256710    0.661263
     18          1           0       -1.303953    2.583366    0.478620
     19          1           0        0.040220    0.040919   -0.000376
     20          1           0       -2.662195    2.528757   -1.590297
     21          1           0       -0.943943    2.660256   -1.996408
     22          1           0       -1.772807    1.097833   -2.154458
     23          1           0        3.689519    2.277234   -0.876862
     24          1           0        3.632913    2.335256    0.861965
     25          1           0        4.922595    0.065782   -0.776304
     26          1           0        5.798595    1.328108    0.095028
     27          1           0        4.864870    0.123408    0.987741
 ---------------------------------------------------------------------
                    Distance matrix (angstroms):
                    1          2          3          4          5
     1  N    0.000000
     2  C    1.455231   0.000000
     3  C    1.329350   2.429850   0.000000
     4  O    2.256212   2.771062   1.237295   0.000000
     5  C    2.417700   3.791542   1.520196   2.404439   0.000000
     6  N    3.580390   4.805622   2.399805   2.675558   1.450917
     7  C    4.698149   5.998466   3.638806   3.985846   2.432526
     8  C    3.150798   4.430419   2.496327   3.265737   1.530771
     9  C    5.924509   7.093178   4.748331   4.750206   3.792500
    10  O    5.060343   6.461935   4.229211   4.847281   2.821445
    11  C    7.199692   8.430543   6.100913   6.206156   5.001770
    12  O    6.014286   7.010094   4.751011   4.437400   4.122859
    13  C    8.399347   9.531509   7.232392   7.132163   6.285894
    14  H    1.008346   2.142200   2.018327   3.144085   2.525880
    15  H    2.099964   1.088349   2.763353   2.801044   4.193702
    16  H    2.069341   1.085039   3.297864   3.819914   4.479752
    17  H    2.100796   1.088613   2.744628   2.794699   4.138001
    18  H    2.575422   4.013760   2.145934   3.208026   1.088833
    19  H    3.811142   4.817558   2.508565   2.281938   2.131571
    20  H    2.947878   4.145362   2.769372   3.710400   2.163618
    21  H    4.115244   5.458477   3.439260   4.185435   2.153018
    22  H    3.524541   4.588402   2.707855   3.091739   2.161247
    23  H    7.442275   8.751587   6.369873   6.587446   5.105921
    24  H    7.169950   8.417097   6.200090   6.438070   5.096315
    25  H    8.629719   9.726643   7.390071   7.177874   6.483598
    26  H    9.290146  10.467372   8.165859   8.143146   7.134213
    27  H    8.392275   9.422000   7.241725   7.038438   6.475736
                    6          7          8          9         10
     6  N    0.000000
     7  C    1.326068   0.000000
     8  C    2.465463   3.193842   0.000000
     9  C    2.407754   1.541824   4.518057   0.000000
    10  O    2.272238   1.231199   3.359502   2.414632   0.000000
    11  C    3.740029   2.572995   5.618984   1.490001   2.840020
    12  O    2.675761   2.379905   4.885846   1.210809   3.478078
    13  C    4.915700   3.920001   6.914169   2.508113   4.346860
    14  H    3.858494   4.792278   3.100715   6.163487   4.904117
    15  H    4.957870   6.131831   5.094387   7.068316   6.699555
    16  H    5.627789   6.742843   5.015464   7.933956   7.055718
    17  H    5.104378   6.376168   4.506452   7.406500   6.930384
    18  H    2.069575   2.606990   2.158976   4.085145   2.584707
    19  H    1.012290   2.020640   3.061428   2.498101   3.156697
    20  H    3.401728   4.136991   1.089107   5.538001   4.130237
    21  H    2.693708   2.955684   1.088658   4.263005   2.840782
    22  H    2.744816   3.615450   1.089839   4.687528   4.041742
    23  H    3.990796   2.755866   5.443727   2.089060   2.715453
    24  H    3.973642   2.754128   5.871597   2.088960   2.729226
    25  H    5.088595   4.232852   6.951256   2.779450   4.792598
    26  H    5.823002   4.714243   7.714335   3.440419   4.915905
    27  H    5.074640   4.231608   7.295877   2.778984   4.800765
                   11         12         13         14         15
    11  C    0.000000
    12  O    2.395801   0.000000
    13  C    1.518580   2.800384   0.000000
    14  H    7.314665   6.438901   8.620334   0.000000
    15  H    8.409704   6.882587   9.407698   2.861258   0.000000
    16  H    9.208990   7.948194  10.377503   2.299560   1.772222
    17  H    8.807256   7.214622   9.853550   2.846981   1.772774
    18  H    5.088647   4.632118   6.474290   2.321130   4.399718
    19  H    3.973873   2.274826   4.897140   4.316513   4.836321
    20  H    6.597670   5.932020   7.939243   2.670996   4.979334
    21  H    5.139962   4.835091   6.484930   3.931523   6.092620
    22  H    5.890185   4.822514   7.036181   3.726788   5.229982
    23  H    1.093248   3.078426   2.178678   7.465643   8.859903
    24  H    1.093446   3.078704   2.178930   7.192892   8.360200
    25  H    2.162053   2.781815   1.089397   8.917534   9.639676
    26  H    2.147719   3.873519   1.088604   9.437624  10.358816
    27  H    2.162258   2.781190   1.089405   8.686998   9.175231
                   16         17         18         19         20
    16  H    0.000000
    17  H    1.773055   0.000000
    18  H    4.502813   4.585369   0.000000
    19  H    5.759521   4.992474   2.915523   0.000000
    20  H    4.527665   4.222890   2.475525   4.002529   0.000000
    21  H    5.997250   5.587166   2.502256   3.437098   1.770483
    22  H    5.294228   4.420154   3.059368   3.007358   1.776748
    23  H    9.490287   9.085911   5.183224   4.368834   6.396603
    24  H    9.115015   8.919445   4.957939   4.349144   6.758655
    25  H   10.625945   9.931736   6.832493   4.943709   8.016100
    26  H   11.273650  10.829419   7.222811   5.901257   8.710157
    27  H   10.286936   9.776977   6.660704   4.925487   8.311961
                   21         22         23         24         25
    21  H    0.000000
    22  H    1.775714   0.000000
    23  H    4.782161   5.732386   0.000000
    24  H    5.405879   6.312831   1.740715   0.000000
    25  H    6.529641   6.913237   2.533990   3.081837   0.000000
    26  H    7.184047   7.901857   2.508706   2.508529   1.766370
    27  H    7.005929   7.408217   3.081746   2.534918   1.765929
                   26         27
    26  H    0.000000
    27  H    1.766375   0.000000
 Stoichiometry    C8H14N2O3
 Framework group  C1[X(C8H14N2O3)]
 Deg. of freedom    75
 Full point group                 C1      NOp   1
 Largest Abelian subgroup         C1      NOp   1
 Largest concise Abelian subgroup C1      NOp   1
                         Standard orientation:                         
 ---------------------------------------------------------------------
 Center     Atomic      Atomic             Coordinates (Angstroms)
 Number     Number       Type             X           Y           Z
 ---------------------------------------------------------------------
      1          7           0        3.481512    0.047006   -0.579660
      2          6           0        4.648933   -0.821639   -0.596408
      3          6           0        2.349232   -0.323770    0.009950
      4          8           0        2.194042   -1.433887    0.533835
      5          6           0        1.245040    0.720523    0.044714
      6          7           0       -0.020609    0.021267    0.164436
      7          6           0       -1.171164    0.573777   -0.195304
      8          6           0        1.471868    1.676529    1.218537
      9          6           0       -2.399034   -0.330039    0.034204
     10          8           0       -1.300646    1.698750   -0.678545
     11          6           0       -3.713407    0.228584   -0.390608
     12          8           0       -2.243342   -1.421864    0.533942
     13          6           0       -4.870830   -0.720501   -0.134297
     14          1           0        3.539557    0.970021   -0.981449
     15          1           0        4.427992   -1.745919   -1.126874
     16          1           0        5.452543   -0.300022   -1.105759
     17          1           0        4.961310   -1.060643    0.418666
     18          1           0        1.240718    1.277823   -0.890676
     19          1           0       -0.026899   -0.910464    0.560124
     20          1           0        2.399062    2.230546    1.078786
     21          1           0        0.646022    2.383712    1.273724
     22          1           0        1.525732    1.115012    2.151032
     23          1           0       -3.839411    1.179818    0.133287
     24          1           0       -3.621892    0.487588   -1.448987
     25          1           0       -4.956817   -0.951565    0.926835
     26          1           0       -5.802704   -0.263669   -0.462891
     27          1           0       -4.735793   -1.654921   -0.677828
 ---------------------------------------------------------------------
 Rotational constants (GHZ):           1.9437642           0.3306112           0.3035193
 Standard basis: 6-311+G(d,p) (5D, 7F)
 There are   383 symmetry adapted cartesian basis functions of A   symmetry.
 There are   370 symmetry adapted basis functions of A   symmetry.
   370 basis functions,   580 primitive gaussians,   383 cartesian basis functions
    50 alpha electrons       50 beta electrons
       nuclear repulsion energy       812.1239714991 Hartrees.
 NAtoms=   27 NActive=   27 NUniq=   27 SFac= 1.00D+00 NAtFMM=   60 NAOKFM=F Big=F
 Integral buffers will be    131072 words long.
 Raffenetti 2 integral format.
 Two-electron integral symmetry is turned on.
 ------------------------------------------------------------------------------
 Polarizable Continuum Model (PCM)
 =================================
 Model                : PCM.
 Atomic radii         : SMD-Coulomb.
 Polarization charges : Total charges.
 Charge compensation  : None.
 Solution method      : On-the-fly selection.
 Cavity type          : VdW (van der Waals Surface) (Alpha=1.000).
 Cavity algorithm     : GePol (No added spheres)
                        Default sphere list used, NSphG=   27.
                        Lebedev-Laikov grids with approx.  5.0 points / Ang**2.
                        Smoothing algorithm: York/Karplus (Gamma=1.0000).
                        Polarization charges: spherical gaussians, with
                                              point-specific exponents (IZeta= 3).
                        Self-potential: point-specific (ISelfS= 7).
                        Self-field    : sphere-specific E.n sum rule (ISelfD= 2).
 1st derivatives      : Analytical E(r).r(x)/FMM algorithm (CHGder, D1EAlg=3).
                        Cavity 1st derivative terms included.
 Solvent              : Water, Eps=  78.355300 Eps(inf)=   1.777849
 ------------------------------------------------------------------------------
 ------------------------------------------------------------------------------
 Atomic radii for non-electrostatic terms: SMD-CDS.
 ------------------------------------------------------------------------------
 Nuclear repulsion after PCM non-electrostatic terms =      812.1343011079 Hartrees.
 One-electron integrals computed using PRISM.
 NBasis=   370 RedAO= T EigKep=  5.24D-06  NBF=   370
 NBsUse=   370 1.00D-06 EigRej= -1.00D+00 NBFU=   370
 Initial guess from the checkpoint file:  "2KT_3D.chk"
 B after Tr=    -0.000000    0.000000   -0.000000
         Rot=    1.000000    0.000020    0.000174    0.000128 Ang=   0.02 deg.
 ExpMin= 4.38D-02 ExpMax= 8.59D+03 ExpMxC= 1.30D+03 IAcc=3 IRadAn=         5 AccDes= 0.00D+00
 Harris functional with IExCor= 1009 and IRadAn=       5 diagonalized for initial guess.
 HarFok:  IExCor= 1009 AccDes= 0.00D+00 IRadAn=         5 IDoV= 1 UseB2=F ITyADJ=14
 ICtDFT=  3500011 ScaDFX=  1.000000  1.000000  1.000000  1.000000
 FoFCou: FMM=F IPFlag=           0 FMFlag=      100000 FMFlg1=           0
         NFxFlg=           0 DoJE=T BraDBF=F KetDBF=T FulRan=T
         wScrn=  0.000000 ICntrl=       500 IOpCl=  0 I1Cent=   200000004 NGrid=           0
         NMat0=    1 NMatS0=      1 NMatT0=    0 NMatD0=    1 NMtDS0=    0 NMtDT0=    0
 Petite list used in FoFCou.
 Requested convergence on RMS density matrix=1.00D-08 within 128 cycles.
 Requested convergence on MAX density matrix=1.00D-06.
 Requested convergence on             energy=1.00D-06.
 No special actions if energy rises.
 Inv3:  Mode=1 IEnd=    11524800.
 Iteration    1 A*A^-1 deviation from unit magnitude is 7.11D-15 for   1958.
 Iteration    1 A*A^-1 deviation from orthogonality  is 4.15D-15 for    262    232.
 Iteration    1 A^-1*A deviation from unit magnitude is 6.88D-15 for   1958.
 Iteration    1 A^-1*A deviation from orthogonality  is 1.23D-13 for   1324   1301.
 Error on total polarization charges =  0.05800
 SCF Done:  E(RM052X) =  -648.621269253     A.U. after   11 cycles
            NFock= 11  Conv=0.75D-08     -V/T= 2.0038
 SMD-CDS (non-electrostatic) energy       (kcal/mol) =       6.48
 (included in total energy above)
 D1PCM: PCM CHGder 1st derivatives, ID1Alg=3 FixD1E=F DoIter=F DoCFld=F I1PDM=0.
 Calling FoFJK, ICntrl=      2127 FMM=F ISym2X=0 I1Cent= 0 IOpClX= 0 NMat=1 NMatS=1 NMatT=0.
 ***** Axes restored to original set *****
 -------------------------------------------------------------------
 Center     Atomic                   Forces (Hartrees/Bohr)
 Number     Number              X              Y              Z
 -------------------------------------------------------------------
      1        7           0.000045254    0.000175636   -0.000237211
      2        6          -0.000262230    0.000109178   -0.000141458
      3        6           0.000399256    0.000176455    0.000622162
      4        8          -0.000161083   -0.000236128   -0.000375037
      5        6           0.000021527    0.000062895   -0.000177724
      6        7           0.000120276   -0.000110806    0.000277847
      7        6          -0.000344742    0.000236348   -0.000209202
      8        6          -0.000014069   -0.000148385    0.000189117
      9        6           0.000349109   -0.000329298    0.000317220
     10        8           0.000120436   -0.000120081    0.000018958
     11        6           0.000039420   -0.000423165   -0.000064220
     12        8          -0.000050118    0.000286708   -0.000115377
     13        6          -0.000087006    0.000189920   -0.000005506
     14        1           0.000126602   -0.000308671    0.000051423
     15        1           0.000070154   -0.000014703    0.000009731
     16        1           0.000015251   -0.000002859    0.000033477
     17        1           0.000012010   -0.000034654    0.000014886
     18        1          -0.000108231    0.000093170   -0.000040243
     19        1          -0.000271257    0.000246589   -0.000103257
     20        1          -0.000030344    0.000021428    0.000085667
     21        1           0.000060081   -0.000031871   -0.000028372
     22        1          -0.000039847   -0.000014810   -0.000074552
     23        1          -0.000005804    0.000144760   -0.000010070
     24        1          -0.000027328    0.000127067   -0.000035381
     25        1          -0.000005759   -0.000021619   -0.000021649
     26        1           0.000030560   -0.000051453    0.000003097
     27        1          -0.000002119   -0.000021651    0.000015674
 -------------------------------------------------------------------
 Cartesian Forces:  Max     0.000622162 RMS     0.000173850

 GradGradGradGradGradGradGradGradGradGradGradGradGradGradGradGradGradGrad
 Berny optimization.
 Using GEDIIS/GDIIS optimizer.
 FormGI is forming the generalized inverse of G from B-inverse, IUseBI=4.
 Internal  Forces:  Max     0.000321522 RMS     0.000109382
 Search for a local minimum.
 Step number  15 out of a maximum of  135
 All quantities printed in internal units (Hartrees-Bohrs-Radians)
 Mixed Optimization -- En-DIIS/RFO-DIIS
 Swapping is turned off.
 Update second derivatives using D2CorX and points    5    6    7    8    9
                                                     10   11   12   13   14
                                                     15
 DE=  5.39D-06 DEPred=-3.76D-06 R=-1.43D+00
 Trust test=-1.43D+00 RLast= 8.83D-02 DXMaxT set to 1.92D-01
 ITU= -1  1 -1  1  0 -1  1  1 -1  1  1  0  1  1  0
     Eigenvalues ---    0.00080   0.00369   0.00372   0.00542   0.00675
     Eigenvalues ---    0.00818   0.00888   0.01250   0.01330   0.02384
     Eigenvalues ---    0.02405   0.03060   0.04114   0.04391   0.04670
     Eigenvalues ---    0.05060   0.05195   0.05466   0.05570   0.05666
     Eigenvalues ---    0.05733   0.05811   0.06511   0.07408   0.07665
     Eigenvalues ---    0.09147   0.13157   0.15290   0.15855   0.15995
     Eigenvalues ---    0.16001   0.16004   0.16013   0.16044   0.16084
     Eigenvalues ---    0.16096   0.16252   0.16508   0.17083   0.17802
     Eigenvalues ---    0.20810   0.21974   0.22072   0.24549   0.24992
     Eigenvalues ---    0.25199   0.26138   0.27335   0.29178   0.29940
     Eigenvalues ---    0.30771   0.32112   0.32928   0.34371   0.34796
     Eigenvalues ---    0.34807   0.34811   0.34812   0.34815   0.34815
     Eigenvalues ---    0.34825   0.34834   0.34845   0.34889   0.34948
     Eigenvalues ---    0.35476   0.36487   0.37617   0.53340   0.54399
     Eigenvalues ---    0.56865   0.57772   0.97942   0.98594   1.01870
 En-DIIS/RFO-DIIS/Sim-DIIS IScMMF=       -3 using points:    15   14   13   12   11   10    9    8    7    6
 RFO step:  Lambda=-4.69134797D-05.
 DIIS inversion failure, remove point  10.
 DIIS inversion failure, remove point   9.
 RFO-DIIS uses    8 points instead of   10
 EnCoef did   100 forward-backward iterations
 EnCoef did   100 forward-backward iterations
 EnCoef did   100 forward-backward iterations
 EnCoef did   100 forward-backward iterations
 EnCoef did   100 forward-backward iterations
 EnCoef did   100 forward-backward iterations
 EnCoef did   100 forward-backward iterations
 EnCoef did     2 forward-backward iterations
 DidBck=T Rises=T En-DIIS coefs:    0.45128    0.28899    0.00000    0.25972    0.00000
                  En-DIIS coefs:    0.00000    0.00000    0.00000    0.00000    0.00000
 Iteration  1 RMS(Cart)=  0.03664984 RMS(Int)=  0.00087021
 Iteration  2 RMS(Cart)=  0.00106684 RMS(Int)=  0.00000776
 Iteration  3 RMS(Cart)=  0.00000097 RMS(Int)=  0.00000774
 Variable       Old X    -DE/DX   Delta X   Delta X   Delta X     New X
                                 (Linear)    (Quad)   (Total)
    R1        2.74999   0.00006   0.00016  -0.00003   0.00013   2.75012
    R2        2.51211  -0.00013   0.00031  -0.00121  -0.00090   2.51121
    R3        1.90550  -0.00032   0.00014  -0.00068  -0.00054   1.90496
    R4        2.05668   0.00004   0.00002   0.00003   0.00005   2.05673
    R5        2.05043  -0.00000  -0.00004   0.00000  -0.00004   2.05039
    R6        2.05718   0.00000  -0.00007   0.00016   0.00009   2.05727
    R7        2.33815   0.00021  -0.00019   0.00094   0.00074   2.33889
    R8        2.87275  -0.00008  -0.00020  -0.00154  -0.00174   2.87102
    R9        2.74184  -0.00020  -0.00029   0.00070   0.00041   2.74225
   R10        2.89274  -0.00019   0.00105  -0.00201  -0.00096   2.89178
   R11        2.05760   0.00005  -0.00004  -0.00018  -0.00022   2.05737
   R12        2.50591   0.00005   0.00044  -0.00072  -0.00027   2.50563
   R13        1.91295  -0.00027   0.00005  -0.00043  -0.00038   1.91257
   R14        2.91363   0.00024  -0.00148   0.00360   0.00211   2.91574
   R15        2.32663  -0.00011  -0.00022   0.00012  -0.00010   2.32653
   R16        2.05811   0.00003  -0.00005   0.00031   0.00026   2.05837
   R17        2.05726   0.00003  -0.00019   0.00044   0.00025   2.05752
   R18        2.05950   0.00007   0.00007   0.00004   0.00010   2.05960
   R19        2.81569  -0.00006   0.00063  -0.00142  -0.00079   2.81491
   R20        2.28810  -0.00029   0.00015  -0.00058  -0.00043   2.28766
   R21        2.86970  -0.00012   0.00047  -0.00144  -0.00097   2.86873
   R22        2.06594   0.00010  -0.00019   0.00064   0.00045   2.06639
   R23        2.06631   0.00006  -0.00010   0.00039   0.00029   2.06661
   R24        2.05866   0.00002  -0.00005   0.00015   0.00011   2.05877
   R25        2.05716   0.00000  -0.00003   0.00006   0.00002   2.05719
   R26        2.05868   0.00002  -0.00006   0.00019   0.00013   2.05881
    A1        2.11989   0.00022  -0.00024   0.00150   0.00125   2.12114
    A2        2.08936  -0.00004   0.00031  -0.00040  -0.00010   2.08926
    A3        2.07268  -0.00017  -0.00024  -0.00135  -0.00159   2.07109
    A4        1.92803  -0.00011  -0.00010  -0.00060  -0.00070   1.92732
    A5        1.88872   0.00002   0.00009   0.00035   0.00044   1.88916
    A6        1.92892   0.00005  -0.00006  -0.00004  -0.00010   1.92882
    A7        1.90690   0.00002  -0.00010   0.00003  -0.00007   1.90683
    A8        1.90316   0.00000  -0.00009  -0.00003  -0.00011   1.90305
    A9        1.90789   0.00002   0.00026   0.00030   0.00056   1.90845
   A10        2.14704   0.00012   0.00012   0.00125   0.00138   2.14841
   A11        2.02329  -0.00028  -0.00052   0.00241   0.00189   2.02519
   A12        2.11245   0.00015   0.00019  -0.00366  -0.00347   2.10898
   A13        1.88013   0.00003   0.00001  -0.00218  -0.00218   1.87795
   A14        1.91657  -0.00026  -0.00361  -0.00106  -0.00467   1.91189
   A15        1.91223   0.00012   0.00092   0.00444   0.00537   1.91760
   A16        1.94654   0.00012   0.00099  -0.00165  -0.00067   1.94587
   A17        1.89030  -0.00001   0.00189  -0.00129   0.00060   1.89090
   A18        1.91738   0.00001  -0.00012   0.00179   0.00168   1.91907
   A19        2.13373   0.00012  -0.00135   0.00288   0.00150   2.13522
   A20        2.07289  -0.00030  -0.00058  -0.00129  -0.00191   2.07098
   A21        2.07618   0.00018   0.00199  -0.00239  -0.00044   2.07575
   A22        1.98925   0.00006   0.00052  -0.00067  -0.00015   1.98910
   A23        2.18760   0.00012  -0.00057   0.00114   0.00057   2.18817
   A24        2.10632  -0.00017   0.00003  -0.00045  -0.00042   2.10590
   A25        1.92351  -0.00013  -0.00123   0.00051  -0.00072   1.92279
   A26        1.90938   0.00001   0.00127  -0.00185  -0.00058   1.90880
   A27        1.91948   0.00009  -0.00035   0.00086   0.00051   1.91999
   A28        1.89851   0.00006   0.00029   0.00059   0.00089   1.89940
   A29        1.90690   0.00001   0.00015  -0.00000   0.00015   1.90705
   A30        1.90584  -0.00004  -0.00013  -0.00012  -0.00025   1.90559
   A31        2.02672  -0.00004   0.00012  -0.00053  -0.00041   2.02631
   A32        2.08017  -0.00007   0.00027  -0.00085  -0.00058   2.07959
   A33        2.17630   0.00011  -0.00039   0.00139   0.00100   2.17729
   A34        1.97132   0.00003  -0.00028   0.00108   0.00080   1.97212
   A35        1.86634  -0.00001   0.00060  -0.00125  -0.00066   1.86568
   A36        1.86601  -0.00002  -0.00010   0.00037   0.00026   1.86627
   A37        1.95527   0.00003  -0.00031   0.00105   0.00074   1.95601
   A38        1.95541   0.00003  -0.00061   0.00158   0.00097   1.95638
   A39        1.84148  -0.00007   0.00083  -0.00324  -0.00241   1.83907
   A40        1.93598  -0.00001   0.00004  -0.00013  -0.00009   1.93590
   A41        1.91689   0.00008  -0.00039   0.00139   0.00100   1.91788
   A42        1.93626  -0.00002  -0.00007  -0.00001  -0.00008   1.93618
   A43        1.89174  -0.00003   0.00016  -0.00042  -0.00025   1.89148
   A44        1.89003   0.00000   0.00009  -0.00037  -0.00028   1.88975
   A45        1.89173  -0.00003   0.00018  -0.00051  -0.00033   1.89141
    D1        1.08079  -0.00001   0.00390  -0.00157   0.00234   1.08313
    D2       -3.11556  -0.00003   0.00377  -0.00167   0.00211  -3.11345
    D3       -1.02699   0.00003   0.00411  -0.00111   0.00300  -1.02399
    D4       -2.11537  -0.00001   0.00069  -0.00709  -0.00641  -2.12178
    D5       -0.02854  -0.00004   0.00056  -0.00719  -0.00664  -0.03517
    D6        2.06003   0.00003   0.00089  -0.00663  -0.00574   2.05429
    D7       -0.04761   0.00008  -0.00041  -0.00698  -0.00738  -0.05499
    D8        3.06356  -0.00022  -0.00696  -0.00720  -0.01417   3.04940
    D9       -3.13514   0.00008   0.00276  -0.00153   0.00123  -3.13391
   D10       -0.02397  -0.00022  -0.00379  -0.00176  -0.00556  -0.02952
   D11        2.71788   0.00009  -0.00030  -0.06942  -0.06973   2.64815
   D12       -1.44224   0.00010  -0.00124  -0.07342  -0.07465  -1.51690
   D13        0.66513   0.00003  -0.00307  -0.06907  -0.07214   0.59298
   D14       -0.45348  -0.00020  -0.00672  -0.06955  -0.07627  -0.52975
   D15        1.66958  -0.00020  -0.00765  -0.07355  -0.08119   1.58839
   D16       -2.50624  -0.00027  -0.00948  -0.06920  -0.07868  -2.58491
   D17       -2.76051  -0.00020  -0.01055   0.00842  -0.00212  -2.76263
   D18        0.41132  -0.00013  -0.01811   0.03971   0.02159   0.43291
   D19        1.41836   0.00003  -0.00670   0.01213   0.00544   1.42380
   D20       -1.69300   0.00010  -0.01426   0.04342   0.02915  -1.66386
   D21       -0.69362  -0.00005  -0.00843   0.01178   0.00337  -0.69025
   D22        2.47821   0.00002  -0.01599   0.04308   0.02708   2.50528
   D23        1.11462   0.00003   0.00267  -0.00088   0.00179   1.11640
   D24       -3.08193   0.00004   0.00306  -0.00098   0.00208  -3.07986
   D25       -0.98877   0.00005   0.00348  -0.00175   0.00173  -0.98704
   D26       -3.08574  -0.00003   0.00094  -0.00534  -0.00439  -3.09013
   D27       -0.99910  -0.00002   0.00134  -0.00544  -0.00410  -1.00321
   D28        1.09406  -0.00001   0.00176  -0.00621  -0.00445   1.08961
   D29       -0.98964   0.00004   0.00388  -0.00683  -0.00295  -0.99259
   D30        1.09700   0.00004   0.00428  -0.00694  -0.00266   1.09434
   D31       -3.09302   0.00005   0.00470  -0.00771  -0.00301  -3.09603
   D32       -3.12555  -0.00000  -0.00552   0.01486   0.00936  -3.11618
   D33        0.02175   0.00001  -0.00222   0.01002   0.00782   0.02956
   D34       -0.01424  -0.00008   0.00206  -0.01647  -0.01443  -0.02867
   D35        3.13305  -0.00007   0.00535  -0.02131  -0.01598   3.11707
   D36       -3.11157  -0.00007   0.00174  -0.00417  -0.00242  -3.11400
   D37        0.02899   0.00001   0.00065  -0.00038   0.00027   0.02926
   D38        0.02461  -0.00007  -0.00138   0.00043  -0.00095   0.02366
   D39       -3.11801   0.00000  -0.00248   0.00422   0.00174  -3.11627
   D40        3.13984   0.00002  -0.00149   0.00063  -0.00086   3.13898
   D41       -0.98458   0.00007  -0.00164   0.00177   0.00013  -0.98445
   D42        0.98113  -0.00002  -0.00046  -0.00234  -0.00280   0.97833
   D43       -0.00066  -0.00006  -0.00033  -0.00339  -0.00372  -0.00438
   D44        2.15811  -0.00001  -0.00048  -0.00225  -0.00273   2.15537
   D45       -2.15937  -0.00010   0.00070  -0.00636  -0.00566  -2.16503
   D46        1.05151  -0.00001  -0.00049   0.00010  -0.00038   1.05113
   D47       -3.14087   0.00000  -0.00051   0.00040  -0.00011  -3.14097
   D48       -1.04989   0.00001  -0.00058   0.00066   0.00008  -1.04981
   D49       -1.05739  -0.00004  -0.00084   0.00019  -0.00065  -1.05804
   D50        1.03342  -0.00003  -0.00086   0.00048  -0.00038   1.03304
   D51        3.12440  -0.00002  -0.00093   0.00075  -0.00019   3.12421
   D52       -3.12309   0.00001  -0.00127   0.00253   0.00126  -3.12184
   D53       -1.03229   0.00002  -0.00129   0.00283   0.00153  -1.03075
   D54        1.05869   0.00003  -0.00137   0.00309   0.00172   1.06041
         Item               Value     Threshold  Converged?
 Maximum Force            0.000322     0.000450     YES
 RMS     Force            0.000109     0.000300     YES
 Maximum Displacement     0.176810     0.001800     NO 
 RMS     Displacement     0.036707     0.001200     NO 
 Predicted change in Energy=-2.413854D-05
 GradGradGradGradGradGradGradGradGradGradGradGradGradGradGradGradGradGrad

                          Input orientation:                          
 ---------------------------------------------------------------------
 Center     Atomic      Atomic             Coordinates (Angstroms)
 Number     Number       Type             X           Y           Z
 ---------------------------------------------------------------------
      1          7           0       -3.430483    1.242326    0.976172
      2          6           0       -4.528073    0.420008    1.462988
      3          6           0       -2.342590    0.701470    0.437777
      4          8           0       -2.160975   -0.520617    0.364373
      5          6           0       -1.330521    1.675350   -0.141426
      6          7           0       -0.022227    1.054109   -0.050780
      7          6           0        1.100522    1.759240   -0.068080
      8          6           0       -1.699903    1.995362   -1.591551
      9          6           0        2.380773    0.901075    0.003895
     10          8           0        1.170269    2.986836   -0.130286
     11          6           0        3.669696    1.647478    0.024486
     12          8           0        2.281179   -0.304932    0.037533
     13          6           0        4.881529    0.736231    0.099462
     14          1           0       -3.512375    2.246876    0.995060
     15          1           0       -4.190772   -0.222062    2.274488
     16          1           0       -5.309326    1.078197    1.828632
     17          1           0       -4.924974   -0.200122    0.661059
     18          1           0       -1.317140    2.589915    0.449073
     19          1           0        0.034375    0.044091   -0.019408
     20          1           0       -2.660695    2.507065   -1.630185
     21          1           0       -0.939011    2.643484   -2.023347
     22          1           0       -1.758763    1.075448   -2.173068
     23          1           0        3.685319    2.279340   -0.867824
     24          1           0        3.623075    2.340202    0.869427
     25          1           0        4.919921    0.068515   -0.760531
     26          1           0        5.792583    1.331966    0.112302
     27          1           0        4.856088    0.128249    1.003159
 ---------------------------------------------------------------------
                    Distance matrix (angstroms):
                    1          2          3          4          5
     1  N    0.000000
     2  C    1.455300   0.000000
     3  C    1.328874   2.430352   0.000000
     4  O    2.256971   2.773965   1.237687   0.000000
     5  C    2.417929   3.791354   1.519277   2.401616   0.000000
     6  N    3.564585   4.795438   2.397317   2.688188   1.451134
     7  C    4.678426   5.984880   3.637278   4.002764   2.433595
     8  C    3.186718   4.450898   2.491059   3.219996   1.530265
     9  C    5.901904   7.077607   4.747447   4.772696   3.793985
    10  O    5.043261   6.449668   4.229157   4.862520   2.823839
    11  C    7.175124   8.413048   6.100273   6.229999   5.003046
    12  O    5.991506   6.994524   4.748925   4.459381   4.122854
    13  C    8.373428   9.513138   7.232120   7.158680   6.287251
    14  H    1.008059   2.141972   2.016740   3.143735   2.525615
    15  H    2.099547   1.088375   2.764452   2.803169   4.197363
    16  H    2.069705   1.085019   3.298170   3.822615   4.479801
    17  H    2.100822   1.088660   2.744345   2.798291   4.132973
    18  H    2.561260   4.005822   2.148930   3.224073   1.088714
    19  H    3.798972   4.811937   2.508212   2.299075   2.130454
    20  H    2.997539   4.172605   2.763663   3.659897   2.162757
    21  H    4.143403   5.475375   3.434906   4.148004   2.152252
    22  H    3.569343   4.617313   2.701338   3.024533   2.161213
    23  H    7.423635   8.737826   6.366314   6.598274   5.104028
    24  H    7.139286   8.395276   6.201687   6.472604   5.099212
    25  H    8.609484   9.712475   7.387871   7.193856   6.483304
    26  H    9.263869  10.448538   8.166058   8.170354   7.135888
    27  H    8.361169   9.399948   7.243563   7.075892   6.479021
                    6          7          8          9         10
     6  N    0.000000
     7  C    1.325924   0.000000
     8  C    2.464656   3.196732   0.000000
     9  C    2.408489   1.542942   4.516063   0.000000
    10  O    2.272400   1.231149   3.369896   2.415311   0.000000
    11  C    3.740060   2.573269   5.618291   1.489585   2.839889
    12  O    2.675906   2.380318   4.877939   1.210580   3.478222
    13  C    4.916344   3.920540   6.910874   2.508004   4.346431
    14  H    3.833746   4.758873   3.168417   6.125584   4.872484
    15  H    4.940876   6.116451   5.105650   7.042885   6.694828
    16  H    5.611256   6.719188   5.056360   7.905610   7.033165
    17  H    5.110454   6.377879   4.505051   7.417441   6.923504
    18  H    2.070110   2.608172   2.159663   4.089612   2.584648
    19  H    1.012089   2.020092   3.047427   2.498109   3.156311
    20  H    3.401046   4.140793   1.089244   5.537673   4.141999
    21  H    2.693998   2.960515   1.088791   4.262237   2.854931
    22  H    2.742283   3.615806   1.089894   4.680313   4.050381
    23  H    3.989317   2.755226   5.441051   2.088385   2.714773
    24  H    3.973543   2.753128   5.874472   2.088910   2.726504
    25  H    5.089201   4.233893   6.944451   2.779348   4.793088
    26  H    5.823729   4.714928   7.712364   3.440620   4.915612
    27  H    5.076018   4.232252   7.293808   2.779023   4.800154
                   11         12         13         14         15
    11  C    0.000000
    12  O    2.395841   0.000000
    13  C    1.518068   2.801727   0.000000
    14  H    7.272100   6.402644   8.575649   0.000000
    15  H    8.387172   6.848138   9.378470   2.862309   0.000000
    16  H    9.176158   7.920661  10.342171   2.299932   1.772182
    17  H    8.814034   7.233838   9.867099   2.845134   1.772763
    18  H    5.092838   4.636530   6.479342   2.287976   4.415554
    19  H    3.973454   2.274465   4.897764   4.296608   4.815046
    20  H    6.599293   5.925431   7.938052   2.772178   5.003574
    21  H    5.140606   4.828045   6.482486   3.986261   6.103826
    22  H    5.884269   4.807633   7.026587   3.805842   5.232491
    23  H    1.093486   3.077295   2.178933   7.434930   8.841038
    24  H    1.093601   3.080498   2.179283   7.137166   8.342398
    25  H    2.161583   2.781964   1.089453   8.884310   9.607315
    26  H    2.148002   3.874917   1.088616   9.391409  10.332349
    27  H    2.161800   2.783924   1.089475   8.632486   9.142465
                   16         17         18         19         20
    16  H    0.000000
    17  H    1.773430   0.000000
    18  H    4.486204   4.565710   0.000000
    19  H    5.748024   5.011768   2.920152   0.000000
    20  H    4.584794   4.207805   2.476957   3.990519   0.000000
    21  H    6.032207   5.583908   2.501741   3.423462   1.771265
    22  H    5.349777   4.436693   3.060108   2.986183   1.777001
    23  H    9.466640   9.089684   5.182207   4.364120   6.395697
    24  H    9.071964   8.919966   4.964351   4.352117   6.764737
    25  H   10.600034   9.950630   6.835315   4.941500   8.010528
    26  H   11.236663  10.840409   7.228003   5.901943   8.710627
    27  H   10.243020   9.792550   6.668999   4.929669   8.312357
                   21         22         23         24         25
    21  H    0.000000
    22  H    1.775710   0.000000
    23  H    4.780404   5.726346   0.000000
    24  H    5.410430   6.310353   1.739431   0.000000
    25  H    6.523209   6.900289   2.534463   3.082066   0.000000
    26  H    7.182997   7.893766   2.509727   2.509292   1.766263
    27  H    7.004949   7.398773   3.081959   2.535929   1.765855
                   26         27
    26  H    0.000000
    27  H    1.766234   0.000000
 Stoichiometry    C8H14N2O3
 Framework group  C1[X(C8H14N2O3)]
 Deg. of freedom    75
 Full point group                 C1      NOp   1
 Largest Abelian subgroup         C1      NOp   1
 Largest concise Abelian subgroup C1      NOp   1
                         Standard orientation:                         
 ---------------------------------------------------------------------
 Center     Atomic      Atomic             Coordinates (Angstroms)
 Number     Number       Type             X           Y           Z
 ---------------------------------------------------------------------
      1          7           0        3.458552    0.028674   -0.625788
      2          6           0        4.633129   -0.830504   -0.634776
      3          6           0        2.351659   -0.314181    0.024706
      4          8           0        2.220536   -1.395638    0.612183
      5          6           0        1.246629    0.727998    0.055916
      6          7           0       -0.017683    0.023826    0.162903
      7          6           0       -1.168519    0.573301   -0.200039
      8          6           0        1.465354    1.670668    1.241346
      9          6           0       -2.395748   -0.333453    0.028821
     10          8           0       -1.300196    1.697627   -0.684064
     11          6           0       -3.710272    0.223216   -0.396630
     12          8           0       -2.238017   -1.423629    0.530957
     13          6           0       -4.866725   -0.726949   -0.142990
     14          1           0        3.495470    0.929986   -1.075741
     15          1           0        4.402165   -1.784769   -1.104450
     16          1           0        5.413659   -0.332793   -1.200747
     17          1           0        4.982410   -1.009809    0.380622
     18          1           0        1.245726    1.294332   -0.873903
     19          1           0       -0.024552   -0.901995    0.571721
     20          1           0        2.393871    2.225615    1.113505
     21          1           0        0.638784    2.377079    1.298190
     22          1           0        1.512569    1.099369    2.168307
     23          1           0       -3.837340    1.174318    0.127747
     24          1           0       -3.617772    0.485434   -1.454293
     25          1           0       -4.953583   -0.959535    0.917796
     26          1           0       -5.799174   -0.271491   -0.471900
     27          1           0       -4.729939   -1.660695   -0.687383
 ---------------------------------------------------------------------
 Rotational constants (GHZ):           1.9252033           0.3307040           0.3046599
 Standard basis: 6-311+G(d,p) (5D, 7F)
 There are   383 symmetry adapted cartesian basis functions of A   symmetry.
 There are   370 symmetry adapted basis functions of A   symmetry.
   370 basis functions,   580 primitive gaussians,   383 cartesian basis functions
    50 alpha electrons       50 beta electrons
       nuclear repulsion energy       812.1205784376 Hartrees.
 NAtoms=   27 NActive=   27 NUniq=   27 SFac= 1.00D+00 NAtFMM=   60 NAOKFM=F Big=F
 Integral buffers will be    131072 words long.
 Raffenetti 2 integral format.
 Two-electron integral symmetry is turned on.
 ------------------------------------------------------------------------------
 Polarizable Continuum Model (PCM)
 =================================
 Model                : PCM.
 Atomic radii         : SMD-Coulomb.
 Polarization charges : Total charges.
 Charge compensation  : None.
 Solution method      : On-the-fly selection.
 Cavity type          : VdW (van der Waals Surface) (Alpha=1.000).
 Cavity algorithm     : GePol (No added spheres)
                        Default sphere list used, NSphG=   27.
                        Lebedev-Laikov grids with approx.  5.0 points / Ang**2.
                        Smoothing algorithm: York/Karplus (Gamma=1.0000).
                        Polarization charges: spherical gaussians, with
                                              point-specific exponents (IZeta= 3).
                        Self-potential: point-specific (ISelfS= 7).
                        Self-field    : sphere-specific E.n sum rule (ISelfD= 2).
 1st derivatives      : Analytical E(r).r(x)/FMM algorithm (CHGder, D1EAlg=3).
                        Cavity 1st derivative terms included.
 Solvent              : Water, Eps=  78.355300 Eps(inf)=   1.777849
 ------------------------------------------------------------------------------
 ------------------------------------------------------------------------------
 Atomic radii for non-electrostatic terms: SMD-CDS.
 ------------------------------------------------------------------------------
 Nuclear repulsion after PCM non-electrostatic terms =      812.1308952444 Hartrees.
 One-electron integrals computed using PRISM.
 NBasis=   370 RedAO= T EigKep=  5.34D-06  NBF=   370
 NBsUse=   370 1.00D-06 EigRej= -1.00D+00 NBFU=   370
 Initial guess from the checkpoint file:  "2KT_3D.chk"
 B after Tr=     0.000000    0.000000    0.000000
         Rot=    0.999997    0.002337   -0.000357   -0.000434 Ang=   0.28 deg.
 ExpMin= 4.38D-02 ExpMax= 8.59D+03 ExpMxC= 1.30D+03 IAcc=3 IRadAn=         5 AccDes= 0.00D+00
 Harris functional with IExCor= 1009 and IRadAn=       5 diagonalized for initial guess.
 HarFok:  IExCor= 1009 AccDes= 0.00D+00 IRadAn=         5 IDoV= 1 UseB2=F ITyADJ=14
 ICtDFT=  3500011 ScaDFX=  1.000000  1.000000  1.000000  1.000000
 FoFCou: FMM=F IPFlag=           0 FMFlag=      100000 FMFlg1=           0
         NFxFlg=           0 DoJE=T BraDBF=F KetDBF=T FulRan=T
         wScrn=  0.000000 ICntrl=       500 IOpCl=  0 I1Cent=   200000004 NGrid=           0
         NMat0=    1 NMatS0=      1 NMatT0=    0 NMatD0=    1 NMtDS0=    0 NMtDT0=    0
 Petite list used in FoFCou.
 Requested convergence on RMS density matrix=1.00D-08 within 128 cycles.
 Requested convergence on MAX density matrix=1.00D-06.
 Requested convergence on             energy=1.00D-06.
 No special actions if energy rises.
 Inv3:  Mode=1 IEnd=    11466075.
 Iteration    1 A*A^-1 deviation from unit magnitude is 5.33D-15 for    414.
 Iteration    1 A*A^-1 deviation from orthogonality  is 4.06D-15 for   1936   1326.
 Iteration    1 A^-1*A deviation from unit magnitude is 5.77D-15 for    414.
 Iteration    1 A^-1*A deviation from orthogonality  is 3.31D-14 for   1309   1293.
 Error on total polarization charges =  0.05801
 SCF Done:  E(RM052X) =  -648.621289483     A.U. after   12 cycles
            NFock= 12  Conv=0.38D-08     -V/T= 2.0038
 SMD-CDS (non-electrostatic) energy       (kcal/mol) =       6.47
 (included in total energy above)
 D1PCM: PCM CHGder 1st derivatives, ID1Alg=3 FixD1E=F DoIter=F DoCFld=F I1PDM=0.
 Calling FoFJK, ICntrl=      2127 FMM=F ISym2X=0 I1Cent= 0 IOpClX= 0 NMat=1 NMatS=1 NMatT=0.
 ***** Axes restored to original set *****
 -------------------------------------------------------------------
 Center     Atomic                   Forces (Hartrees/Bohr)
 Number     Number              X              Y              Z
 -------------------------------------------------------------------
      1        7          -0.000189581    0.000078001   -0.000114683
      2        6           0.000044691   -0.000111391    0.000048823
      3        6           0.000043211   -0.000132347    0.000050037
      4        8          -0.000102793    0.000102803    0.000068013
      5        6           0.000036992    0.000054889    0.000050573
      6        7           0.000146846   -0.000244007    0.000213259
      7        6           0.000279088    0.000167806   -0.000349742
      8        6           0.000008922    0.000079986   -0.000049513
      9        6          -0.000267448    0.000094656    0.000129744
     10        8          -0.000007681   -0.000124054    0.000132377
     11        6          -0.000032913    0.000168067   -0.000024347
     12        8           0.000054394   -0.000027200   -0.000032907
     13        6           0.000083104   -0.000076136    0.000003498
     14        1           0.000026561   -0.000011063    0.000023907
     15        1           0.000006024    0.000015526   -0.000012048
     16        1           0.000021600    0.000026003   -0.000014043
     17        1          -0.000003292    0.000027036    0.000003949
     18        1          -0.000029023   -0.000023463   -0.000057751
     19        1          -0.000106684    0.000046698   -0.000061527
     20        1           0.000013928   -0.000022145    0.000042889
     21        1          -0.000027760   -0.000007427   -0.000039829
     22        1          -0.000001482    0.000010432    0.000015058
     23        1           0.000029832   -0.000033153   -0.000013704
     24        1           0.000009746   -0.000046046   -0.000000044
     25        1          -0.000005047   -0.000006844   -0.000000085
     26        1          -0.000023143    0.000001769   -0.000003616
     27        1          -0.000008096   -0.000008396   -0.000008288
 -------------------------------------------------------------------
 Cartesian Forces:  Max     0.000349742 RMS     0.000093269

 GradGradGradGradGradGradGradGradGradGradGradGradGradGradGradGradGradGrad
 Berny optimization.
 Using GEDIIS/GDIIS optimizer.
 FormGI is forming the generalized inverse of G from B-inverse, IUseBI=4.
 Internal  Forces:  Max     0.000186118 RMS     0.000053272
 Search for a local minimum.
 Step number  16 out of a maximum of  135
 All quantities printed in internal units (Hartrees-Bohrs-Radians)
 Mixed Optimization -- En-DIIS/RFO-DIIS
 Swapping is turned off.
 Update second derivatives using D2CorX and points    7    8    9   10   11
                                                     12   13   14   15   16
 DE= -2.02D-05 DEPred=-2.41D-05 R= 8.38D-01
 TightC=F SS=  1.41D+00  RLast= 1.94D-01 DXNew= 3.2343D-01 5.8215D-01
 Trust test= 8.38D-01 RLast= 1.94D-01 DXMaxT set to 3.23D-01
 ITU=  1 -1  1 -1  1  0 -1  1  1 -1  1  1  0  1  1  0
     Eigenvalues ---    0.00100   0.00362   0.00370   0.00521   0.00671
     Eigenvalues ---    0.00808   0.00886   0.01179   0.01294   0.02369
     Eigenvalues ---    0.02395   0.03046   0.04098   0.04311   0.04740
     Eigenvalues ---    0.04998   0.05203   0.05461   0.05562   0.05660
     Eigenvalues ---    0.05738   0.05817   0.06505   0.07413   0.07659
     Eigenvalues ---    0.09039   0.13177   0.15314   0.15828   0.15961
     Eigenvalues ---    0.15994   0.16002   0.16006   0.16022   0.16049
     Eigenvalues ---    0.16073   0.16204   0.16486   0.16970   0.17742
     Eigenvalues ---    0.20492   0.21970   0.22069   0.24522   0.24984
     Eigenvalues ---    0.25216   0.26142   0.27027   0.29215   0.29933
     Eigenvalues ---    0.30515   0.32109   0.32916   0.34457   0.34786
     Eigenvalues ---    0.34806   0.34810   0.34811   0.34815   0.34816
     Eigenvalues ---    0.34824   0.34829   0.34845   0.34885   0.34970
     Eigenvalues ---    0.35560   0.36492   0.37686   0.53338   0.53796
     Eigenvalues ---    0.55903   0.57700   0.97913   0.98593   1.01276
 En-DIIS/RFO-DIIS/Sim-DIIS IScMMF=       -3 using points:    16   15   14   13   12   11   10    9    8    7
 RFO step:  Lambda=-5.94146091D-06.
 DIIS inversion failure, remove point  10.
 RFO-DIIS uses    9 points instead of   10
 DidBck=F Rises=F RFO-DIIS coefs:    0.85349    0.24124   -0.04176   -0.11055   -0.44695
                  RFO-DIIS coefs:    0.14484    0.29601    0.08801   -0.02434    0.00000
 Iteration  1 RMS(Cart)=  0.01145478 RMS(Int)=  0.00007915
 Iteration  2 RMS(Cart)=  0.00010039 RMS(Int)=  0.00000830
 Iteration  3 RMS(Cart)=  0.00000001 RMS(Int)=  0.00000830
 Variable       Old X    -DE/DX   Delta X   Delta X   Delta X     New X
                                 (Linear)    (Quad)   (Total)
    R1        2.75012  -0.00001  -0.00005   0.00004  -0.00001   2.75011
    R2        2.51121   0.00004   0.00010   0.00023   0.00032   2.51153
    R3        1.90496  -0.00002  -0.00003  -0.00003  -0.00006   1.90490
    R4        2.05673  -0.00002   0.00000  -0.00005  -0.00005   2.05668
    R5        2.05039  -0.00001   0.00001  -0.00000   0.00000   2.05039
    R6        2.05727  -0.00001  -0.00002  -0.00003  -0.00005   2.05722
    R7        2.33889  -0.00012  -0.00009  -0.00022  -0.00031   2.33858
    R8        2.87102   0.00014   0.00049   0.00029   0.00079   2.87180
    R9        2.74225   0.00016  -0.00010   0.00030   0.00020   2.74244
   R10        2.89178   0.00005  -0.00011   0.00031   0.00020   2.89199
   R11        2.05737  -0.00005   0.00014  -0.00018  -0.00004   2.05733
   R12        2.50563   0.00018  -0.00014   0.00049   0.00035   2.50598
   R13        1.91257  -0.00005   0.00001  -0.00013  -0.00012   1.91245
   R14        2.91574  -0.00019   0.00016  -0.00108  -0.00091   2.91483
   R15        2.32653  -0.00013   0.00004  -0.00016  -0.00012   2.32641
   R16        2.05837  -0.00002  -0.00003  -0.00008  -0.00011   2.05827
   R17        2.05752  -0.00001  -0.00002  -0.00004  -0.00005   2.05746
   R18        2.05960  -0.00002  -0.00001  -0.00002  -0.00003   2.05957
   R19        2.81491   0.00006  -0.00010   0.00047   0.00037   2.81528
   R20        2.28766   0.00002   0.00000   0.00007   0.00008   2.28774
   R21        2.86873   0.00008  -0.00001   0.00041   0.00041   2.86914
   R22        2.06639  -0.00001   0.00001  -0.00010  -0.00009   2.06630
   R23        2.06661  -0.00003  -0.00000  -0.00011  -0.00011   2.06649
   R24        2.05877  -0.00000   0.00001  -0.00003  -0.00002   2.05875
   R25        2.05719  -0.00002  -0.00001  -0.00003  -0.00004   2.05715
   R26        2.05881  -0.00000   0.00000  -0.00004  -0.00003   2.05878
    A1        2.12114  -0.00011  -0.00008  -0.00051  -0.00056   2.12058
    A2        2.08926   0.00007  -0.00012   0.00038   0.00029   2.08955
    A3        2.07109   0.00004   0.00031   0.00018   0.00052   2.07161
    A4        1.92732  -0.00000   0.00014  -0.00002   0.00012   1.92744
    A5        1.88916  -0.00005  -0.00014  -0.00023  -0.00036   1.88880
    A6        1.92882  -0.00000   0.00004  -0.00001   0.00003   1.92885
    A7        1.90683   0.00003   0.00006   0.00010   0.00017   1.90700
    A8        1.90305   0.00001   0.00003   0.00014   0.00017   1.90322
    A9        1.90845   0.00001  -0.00014   0.00001  -0.00013   1.90832
   A10        2.14841  -0.00015  -0.00027  -0.00050  -0.00077   2.14764
   A11        2.02519   0.00006  -0.00055   0.00007  -0.00048   2.02470
   A12        2.10898   0.00009   0.00087   0.00042   0.00129   2.11027
   A13        1.87795   0.00009   0.00016   0.00100   0.00117   1.87912
   A14        1.91189  -0.00006   0.00206  -0.00098   0.00108   1.91297
   A15        1.91760  -0.00001  -0.00165   0.00015  -0.00150   1.91610
   A16        1.94587  -0.00002   0.00003   0.00011   0.00014   1.94602
   A17        1.89090   0.00001  -0.00032   0.00036   0.00005   1.89095
   A18        1.91907  -0.00001  -0.00035  -0.00059  -0.00095   1.91812
   A19        2.13522  -0.00009   0.00013  -0.00081  -0.00064   2.13459
   A20        2.07098  -0.00006   0.00016  -0.00032  -0.00011   2.07087
   A21        2.07575   0.00015  -0.00022   0.00104   0.00087   2.07661
   A22        1.98910   0.00003  -0.00013   0.00030   0.00018   1.98928
   A23        2.18817  -0.00001   0.00003  -0.00017  -0.00014   2.18804
   A24        2.10590  -0.00001   0.00008  -0.00014  -0.00005   2.10585
   A25        1.92279  -0.00007   0.00048  -0.00063  -0.00015   1.92264
   A26        1.90880   0.00009  -0.00018   0.00064   0.00046   1.90927
   A27        1.91999  -0.00001   0.00017  -0.00024  -0.00006   1.91993
   A28        1.89940   0.00000  -0.00037   0.00020  -0.00017   1.89923
   A29        1.90705   0.00002  -0.00015   0.00002  -0.00012   1.90693
   A30        1.90559  -0.00002   0.00003   0.00001   0.00004   1.90562
   A31        2.02631   0.00001   0.00001   0.00014   0.00015   2.02646
   A32        2.07959   0.00006   0.00008   0.00021   0.00029   2.07987
   A33        2.17729  -0.00007  -0.00009  -0.00035  -0.00044   2.17685
   A34        1.97212  -0.00004  -0.00008  -0.00029  -0.00037   1.97175
   A35        1.86568   0.00003  -0.00003   0.00037   0.00034   1.86602
   A36        1.86627   0.00001  -0.00003   0.00011   0.00007   1.86634
   A37        1.95601  -0.00002   0.00004  -0.00034  -0.00030   1.95571
   A38        1.95638  -0.00000   0.00011  -0.00043  -0.00033   1.95605
   A39        1.83907   0.00002  -0.00000   0.00070   0.00070   1.83976
   A40        1.93590   0.00000  -0.00000  -0.00002  -0.00002   1.93587
   A41        1.91788  -0.00003  -0.00001  -0.00028  -0.00028   1.91760
   A42        1.93618  -0.00000   0.00005  -0.00005   0.00000   1.93618
   A43        1.89148   0.00001  -0.00002   0.00015   0.00012   1.89160
   A44        1.88975  -0.00000  -0.00002   0.00007   0.00005   1.88980
   A45        1.89141   0.00001   0.00000   0.00014   0.00014   1.89155
    D1        1.08313  -0.00001  -0.00190  -0.00087  -0.00278   1.08035
    D2       -3.11345  -0.00001  -0.00183  -0.00090  -0.00272  -3.11618
    D3       -1.02399  -0.00003  -0.00206  -0.00103  -0.00309  -1.02708
    D4       -2.12178   0.00002   0.00208   0.00010   0.00218  -2.11960
    D5       -0.03517   0.00002   0.00215   0.00008   0.00223  -0.03294
    D6        2.05429   0.00000   0.00192  -0.00006   0.00187   2.05616
    D7       -0.05499   0.00004   0.00316   0.00049   0.00365  -0.05134
    D8        3.04940   0.00002   0.00459   0.00019   0.00478   3.05417
    D9       -3.13391   0.00000  -0.00078  -0.00048  -0.00125  -3.13516
   D10       -0.02952  -0.00002   0.00066  -0.00078  -0.00012  -0.02964
   D11        2.64815   0.00007   0.02105   0.00058   0.02163   2.66978
   D12       -1.51690   0.00007   0.02241   0.00074   0.02315  -1.49375
   D13        0.59298   0.00001   0.02223  -0.00052   0.02172   0.61470
   D14       -0.52975   0.00004   0.02243   0.00026   0.02269  -0.50706
   D15        1.58839   0.00004   0.02379   0.00042   0.02421   1.61260
   D16       -2.58491  -0.00002   0.02361  -0.00084   0.02278  -2.56214
   D17       -2.76263  -0.00003   0.00121  -0.00177  -0.00056  -2.76318
   D18        0.43291   0.00001  -0.00324  -0.00003  -0.00328   0.42963
   D19        1.42380  -0.00000  -0.00144  -0.00127  -0.00271   1.42108
   D20       -1.66386   0.00003  -0.00590   0.00047  -0.00543  -1.66929
   D21       -0.69025   0.00001  -0.00082  -0.00084  -0.00166  -0.69191
   D22        2.50528   0.00005  -0.00528   0.00090  -0.00438   2.50091
   D23        1.11640  -0.00005   0.00081  -0.00080   0.00001   1.11641
   D24       -3.07986  -0.00004   0.00054  -0.00054  -0.00000  -3.07986
   D25       -0.98704  -0.00003   0.00057  -0.00028   0.00029  -0.98675
   D26       -3.09013   0.00001   0.00238  -0.00013   0.00225  -3.08788
   D27       -1.00321   0.00002   0.00211   0.00013   0.00224  -1.00097
   D28        1.08961   0.00004   0.00214   0.00039   0.00253   1.09214
   D29       -0.99259   0.00000   0.00177   0.00000   0.00177  -0.99082
   D30        1.09434   0.00001   0.00150   0.00026   0.00176   1.09610
   D31       -3.09603   0.00003   0.00153   0.00052   0.00205  -3.09398
   D32       -3.11618  -0.00001  -0.00182   0.00059  -0.00122  -3.11741
   D33        0.02956   0.00010  -0.00011   0.00112   0.00101   0.03057
   D34       -0.02867  -0.00006   0.00267  -0.00119   0.00148  -0.02720
   D35        3.11707   0.00006   0.00437  -0.00067   0.00371   3.12078
   D36       -3.11400   0.00005   0.00046   0.00062   0.00108  -3.11292
   D37        0.02926   0.00007   0.00039   0.00094   0.00133   0.03059
   D38        0.02366  -0.00005  -0.00116   0.00012  -0.00104   0.02262
   D39       -3.11627  -0.00004  -0.00122   0.00044  -0.00078  -3.11706
   D40        3.13898   0.00001   0.00061  -0.00014   0.00047   3.13945
   D41       -0.98445  -0.00001   0.00059  -0.00049   0.00009  -0.98436
   D42        0.97833   0.00003   0.00055   0.00052   0.00107   0.97940
   D43       -0.00438  -0.00001   0.00068  -0.00048   0.00020  -0.00418
   D44        2.15537  -0.00003   0.00066  -0.00083  -0.00017   2.15520
   D45       -2.16503   0.00001   0.00063   0.00018   0.00081  -2.16423
   D46        1.05113   0.00001   0.00019   0.00025   0.00044   1.05157
   D47       -3.14097   0.00001   0.00015   0.00024   0.00039  -3.14058
   D48       -1.04981   0.00001   0.00018   0.00021   0.00039  -1.04942
   D49       -1.05804   0.00000   0.00025   0.00023   0.00049  -1.05755
   D50        1.03304   0.00000   0.00022   0.00022   0.00044   1.03348
   D51        3.12421   0.00000   0.00025   0.00019   0.00044   3.12465
   D52       -3.12184  -0.00001   0.00016  -0.00014   0.00003  -3.12181
   D53       -1.03075  -0.00001   0.00013  -0.00015  -0.00002  -1.03077
   D54        1.06041  -0.00001   0.00016  -0.00018  -0.00002   1.06039
         Item               Value     Threshold  Converged?
 Maximum Force            0.000186     0.000450     YES
 RMS     Force            0.000053     0.000300     YES
 Maximum Displacement     0.055663     0.001800     NO 
 RMS     Displacement     0.011451     0.001200     NO 
 Predicted change in Energy=-2.761238D-06
 GradGradGradGradGradGradGradGradGradGradGradGradGradGradGradGradGradGrad

                          Input orientation:                          
 ---------------------------------------------------------------------
 Center     Atomic      Atomic             Coordinates (Angstroms)
 Number     Number       Type             X           Y           Z
 ---------------------------------------------------------------------
      1          7           0       -3.438666    1.242543    0.964698
      2          6           0       -4.533913    0.419191    1.455009
      3          6           0       -2.340932    0.701250    0.446679
      4          8           0       -2.151174   -0.520493    0.393828
      5          6           0       -1.328301    1.674365   -0.133916
      6          7           0       -0.019961    1.052429   -0.047119
      7          6           0        1.102774    1.757859   -0.067209
      8          6           0       -1.700061    1.998830   -1.582556
      9          6           0        2.383089    0.900470    0.002517
     10          8           0        1.171953    2.985490   -0.128038
     11          6           0        3.672014    1.647307    0.021382
     12          8           0        2.284400   -0.305666    0.035678
     13          6           0        4.884058    0.735759    0.093575
     14          1           0       -3.527478    2.246641    0.969039
     15          1           0       -4.198628   -0.207690    2.279090
     16          1           0       -5.323104    1.077063    1.803797
     17          1           0       -4.919447   -0.216071    0.659436
     18          1           0       -1.313448    2.587751    0.458330
     19          1           0        0.036017    0.042499   -0.013978
     20          1           0       -2.659655    2.512907   -1.617705
     21          1           0       -0.938816    2.646164   -2.014839
     22          1           0       -1.762664    1.080437   -2.166052
     23          1           0        3.686396    2.279629   -0.870564
     24          1           0        3.627019    2.338952    0.867216
     25          1           0        4.921099    0.068994   -0.767203
     26          1           0        5.794993    1.331654    0.105650
     27          1           0        4.859940    0.126838    0.996655
 ---------------------------------------------------------------------
                    Distance matrix (angstroms):
                    1          2          3          4          5
     1  N    0.000000
     2  C    1.455294   0.000000
     3  C    1.329045   2.430113   0.000000
     4  O    2.256508   2.772465   1.237521   0.000000
     5  C    2.418070   3.791582   1.519693   2.402714   0.000000
     6  N    3.570359   4.799286   2.398765   2.685254   1.451239
     7  C    4.685623   5.990110   3.638628   3.998952   2.433423
     8  C    3.175409   4.444410   2.492434   3.233665   1.530373
     9  C    5.910637   7.084227   4.749036   4.767787   3.793671
    10  O    5.048737   6.453591   4.229470   4.858748   2.823181
    11  C    7.184389   8.420261   6.101756   6.224756   5.002799
    12  O    6.001126   7.002093   4.751473   4.455192   4.123214
    13  C    8.383521   9.521129   7.233696   7.152818   6.286982
    14  H    1.008028   2.142114   2.017172   3.143583   2.525943
    15  H    2.099606   1.088350   2.763139   2.800737   4.195653
    16  H    2.069439   1.085021   3.297931   3.821170   4.479950
    17  H    2.100821   1.088636   2.745083   2.797598   4.135152
    18  H    2.565647   4.008418   2.148196   3.219802   1.088692
    19  H    3.804121   4.814985   2.509193   2.295010   2.130432
    20  H    2.981524   4.163899   2.765025   3.675096   2.162703
    21  H    4.134857   5.470281   3.436232   4.159232   2.152664
    22  H    3.554835   4.607510   2.702691   3.044158   2.161249
    23  H    7.430360   8.743169   6.368288   6.596711   5.104526
    24  H    7.150910   8.404272   6.202851   6.464366   5.098935
    25  H    8.617562   9.718957   7.389883   7.191143   6.483308
    26  H    9.273962  10.456561   8.167435   8.164255   7.135556
    27  H    8.373331   9.409571   7.244652   7.066693   6.478222
                    6          7          8          9         10
     6  N    0.000000
     7  C    1.326110   0.000000
     8  C    2.464951   3.195345   0.000000
     9  C    2.408361   1.542460   4.515636   0.000000
    10  O    2.272429   1.231083   3.367133   2.414789   0.000000
    11  C    3.740220   2.573143   5.617417   1.489781   2.839607
    12  O    2.676070   2.380118   4.879069   1.210621   3.477938
    13  C    4.916246   3.920287   6.910527   2.508041   4.346278
    14  H    3.842057   4.769901   3.148254   6.138497   4.882021
    15  H    4.945747   6.121549   5.101361   7.051936   6.695805
    16  H    5.616923   6.727261   5.044153   7.915882   7.039875
    17  H    5.110115   6.378993   4.505193   7.416551   6.926417
    18  H    2.070218   2.608264   2.159054   4.088895   2.584423
    19  H    1.012023   2.020708   3.049859   2.499026   3.156669
    20  H    3.401136   4.138841   1.089188   5.536636   4.138075
    21  H    2.693736   2.958114   1.088762   4.260543   2.851404
    22  H    2.743661   3.615906   1.089877   4.682130   4.049038
    23  H    3.990133   2.755490   5.440561   2.088770   2.715145
    24  H    3.973866   2.753658   5.873232   2.089090   2.726883
    25  H    5.089179   4.233423   6.944699   2.779446   4.792764
    26  H    5.823658   4.714706   7.711744   3.440588   4.915515
    27  H    5.075392   4.231824   7.293168   2.778778   4.799799
                   11         12         13         14         15
    11  C    0.000000
    12  O    2.395784   0.000000
    13  C    1.518283   2.801096   0.000000
    14  H    7.286284   6.415868   8.590876   0.000000
    15  H    8.395550   6.860915   9.389449   2.861891   0.000000
    16  H    9.187726   7.931727  10.355071   2.299783   1.772269
    17  H    8.814334   7.231355   9.865844   2.845765   1.772830
    18  H    5.092169   4.636270   6.478580   2.297631   4.410660
    19  H    3.974560   2.275721   4.898538   4.303843   4.822134
    20  H    6.597416   5.926357   7.936897   2.741397   4.995507
    21  H    5.138450   4.827737   6.480812   3.970430   6.099892
    22  H    5.885740   4.811197   7.028771   3.781983   5.229959
    23  H    1.093438   3.077437   2.178874   7.444811   8.847637
    24  H    1.093542   3.080274   2.179197   7.155817   8.349822
    25  H    2.161748   2.781577   1.089443   8.895794   9.619038
    26  H    2.147971   3.874271   1.088595   9.406971  10.342431
    27  H    2.161979   2.782794   1.089459   8.651191   9.155010
                   16         17         18         19         20
    16  H    0.000000
    17  H    1.773329   0.000000
    18  H    4.491080   4.572208   0.000000
    19  H    5.752809   5.007691   2.919322   0.000000
    20  H    4.567525   4.211811   2.475439   3.992682   0.000000
    21  H    6.022129   5.584761   2.502064   3.425321   1.771090
    22  H    5.332583   4.430529   3.059603   2.990651   1.776864
    23  H    9.474674   9.090101   5.182600   4.366206   6.394138
    24  H    9.087037   8.922633   4.963598   4.352642   6.762201
    25  H   10.609898   9.947508   6.834885   4.942881   8.010238
    26  H   11.249915  10.839804   7.227178   5.902714   8.708983
    27  H   10.259083   9.791205   6.667578   4.929373   8.310987
                   21         22         23         24         25
    21  H    0.000000
    22  H    1.775695   0.000000
    23  H    4.778734   5.727880   0.000000
    24  H    5.408093   6.311359   1.739807   0.000000
    25  H    6.522041   6.903078   2.534183   3.081994   0.000000
    26  H    7.181128   7.895690   2.509548   2.508933   1.766316
    27  H    7.002976   7.400740   3.081919   2.535803   1.765866
                   26         27
    26  H    0.000000
    27  H    1.766294   0.000000
 Stoichiometry    C8H14N2O3
 Framework group  C1[X(C8H14N2O3)]
 Deg. of freedom    75
 Full point group                 C1      NOp   1
 Largest Abelian subgroup         C1      NOp   1
 Largest concise Abelian subgroup C1      NOp   1
                         Standard orientation:                         
 ---------------------------------------------------------------------
 Center     Atomic      Atomic             Coordinates (Angstroms)
 Number     Number       Type             X           Y           Z
 ---------------------------------------------------------------------
      1          7           0        3.466878    0.036634   -0.610863
      2          6           0        4.639518   -0.825135   -0.623124
      3          6           0        2.351668   -0.317132    0.019626
      4          8           0        2.213953   -1.408628    0.586310
      5          6           0        1.245947    0.724849    0.053131
      6          7           0       -0.018800    0.021527    0.161977
      7          6           0       -1.169653    0.572980   -0.198586
      8          6           0        1.466136    1.669360    1.236962
      9          6           0       -2.397332   -0.332466    0.029786
     10          8           0       -1.300321    1.697491   -0.682286
     11          6           0       -3.711754    0.225933   -0.394404
     12          8           0       -2.240870   -1.423352    0.530875
     13          6           0       -4.868821   -0.723710   -0.140326
     14          1           0        3.509644    0.945007   -1.045775
     15          1           0        4.411374   -1.770301   -1.112119
     16          1           0        5.426772   -0.318987   -1.172046
     17          1           0        4.978077   -1.023175    0.392400
     18          1           0        1.244430    1.290600   -0.877016
     19          1           0       -0.025156   -0.905517    0.567859
     20          1           0        2.393756    2.225046    1.106329
     21          1           0        0.639154    2.375147    1.295016
     22          1           0        1.516188    1.099241    2.164480
     23          1           0       -3.837953    1.176628    0.130817
     24          1           0       -3.620011    0.488201   -1.452059
     25          1           0       -4.955183   -0.956534    0.920438
     26          1           0       -5.801009   -0.267307   -0.468596
     27          1           0       -4.732974   -1.657350   -0.685104
 ---------------------------------------------------------------------
 Rotational constants (GHZ):           1.9326493           0.3305188           0.3042154
 Standard basis: 6-311+G(d,p) (5D, 7F)
 There are   383 symmetry adapted cartesian basis functions of A   symmetry.
 There are   370 symmetry adapted basis functions of A   symmetry.
   370 basis functions,   580 primitive gaussians,   383 cartesian basis functions
    50 alpha electrons       50 beta electrons
       nuclear repulsion energy       812.0859712651 Hartrees.
 NAtoms=   27 NActive=   27 NUniq=   27 SFac= 1.00D+00 NAtFMM=   60 NAOKFM=F Big=F
 Integral buffers will be    131072 words long.
 Raffenetti 2 integral format.
 Two-electron integral symmetry is turned on.
 ------------------------------------------------------------------------------
 Polarizable Continuum Model (PCM)
 =================================
 Model                : PCM.
 Atomic radii         : SMD-Coulomb.
 Polarization charges : Total charges.
 Charge compensation  : None.
 Solution method      : On-the-fly selection.
 Cavity type          : VdW (van der Waals Surface) (Alpha=1.000).
 Cavity algorithm     : GePol (No added spheres)
                        Default sphere list used, NSphG=   27.
                        Lebedev-Laikov grids with approx.  5.0 points / Ang**2.
                        Smoothing algorithm: York/Karplus (Gamma=1.0000).
                        Polarization charges: spherical gaussians, with
                                              point-specific exponents (IZeta= 3).
                        Self-potential: point-specific (ISelfS= 7).
                        Self-field    : sphere-specific E.n sum rule (ISelfD= 2).
 1st derivatives      : Analytical E(r).r(x)/FMM algorithm (CHGder, D1EAlg=3).
                        Cavity 1st derivative terms included.
 Solvent              : Water, Eps=  78.355300 Eps(inf)=   1.777849
 ------------------------------------------------------------------------------
 ------------------------------------------------------------------------------
 Atomic radii for non-electrostatic terms: SMD-CDS.
 ------------------------------------------------------------------------------
 Nuclear repulsion after PCM non-electrostatic terms =      812.0962933279 Hartrees.
 One-electron integrals computed using PRISM.
 NBasis=   370 RedAO= T EigKep=  5.31D-06  NBF=   370
 NBsUse=   370 1.00D-06 EigRej= -1.00D+00 NBFU=   370
 Initial guess from the checkpoint file:  "2KT_3D.chk"
 B after Tr=    -0.000000    0.000000   -0.000000
         Rot=    0.999999   -0.001310    0.000139    0.000097 Ang=  -0.15 deg.
 ExpMin= 4.38D-02 ExpMax= 8.59D+03 ExpMxC= 1.30D+03 IAcc=3 IRadAn=         5 AccDes= 0.00D+00
 Harris functional with IExCor= 1009 and IRadAn=       5 diagonalized for initial guess.
 HarFok:  IExCor= 1009 AccDes= 0.00D+00 IRadAn=         5 IDoV= 1 UseB2=F ITyADJ=14
 ICtDFT=  3500011 ScaDFX=  1.000000  1.000000  1.000000  1.000000
 FoFCou: FMM=F IPFlag=           0 FMFlag=      100000 FMFlg1=           0
         NFxFlg=           0 DoJE=T BraDBF=F KetDBF=T FulRan=T
         wScrn=  0.000000 ICntrl=       500 IOpCl=  0 I1Cent=   200000004 NGrid=           0
         NMat0=    1 NMatS0=      1 NMatT0=    0 NMatD0=    1 NMtDS0=    0 NMtDT0=    0
 Petite list used in FoFCou.
 Requested convergence on RMS density matrix=1.00D-08 within 128 cycles.
 Requested convergence on MAX density matrix=1.00D-06.
 Requested convergence on             energy=1.00D-06.
 No special actions if energy rises.
 Inv3:  Mode=1 IEnd=    11442627.
 Iteration    1 A*A^-1 deviation from unit magnitude is 6.44D-15 for    206.
 Iteration    1 A*A^-1 deviation from orthogonality  is 3.81D-15 for   1554    238.
 Iteration    1 A^-1*A deviation from unit magnitude is 6.22D-15 for    206.
 Iteration    1 A^-1*A deviation from orthogonality  is 3.18D-14 for   1308   1292.
 Error on total polarization charges =  0.05801
 SCF Done:  E(RM052X) =  -648.621291599     A.U. after   11 cycles
            NFock= 11  Conv=0.31D-08     -V/T= 2.0038
 SMD-CDS (non-electrostatic) energy       (kcal/mol) =       6.48
 (included in total energy above)
 D1PCM: PCM CHGder 1st derivatives, ID1Alg=3 FixD1E=F DoIter=F DoCFld=F I1PDM=0.
 Calling FoFJK, ICntrl=      2127 FMM=F ISym2X=0 I1Cent= 0 IOpClX= 0 NMat=1 NMatS=1 NMatT=0.
 ***** Axes restored to original set *****
 -------------------------------------------------------------------
 Center     Atomic                   Forces (Hartrees/Bohr)
 Number     Number              X              Y              Z
 -------------------------------------------------------------------
      1        7          -0.000027150    0.000029402   -0.000101939
      2        6          -0.000050850    0.000031760   -0.000016615
      3        6           0.000152721    0.000004794    0.000180973
      4        8          -0.000009313   -0.000059262   -0.000101884
      5        6           0.000067810    0.000032094   -0.000002891
      6        7          -0.000025720   -0.000019825    0.000139915
      7        6          -0.000009778    0.000073014   -0.000041364
      8        6          -0.000036497   -0.000011711   -0.000016344
      9        6           0.000001973   -0.000031766   -0.000002380
     10        8          -0.000000410   -0.000050151   -0.000000632
     11        6           0.000008700   -0.000026429    0.000012018
     12        8           0.000000320    0.000025235   -0.000008690
     13        6          -0.000004544    0.000006459   -0.000003605
     14        1           0.000036041    0.000009583    0.000022370
     15        1           0.000015149    0.000002528    0.000001155
     16        1           0.000003635    0.000000571    0.000004313
     17        1          -0.000001066   -0.000002075    0.000004665
     18        1          -0.000029220    0.000005232    0.000002876
     19        1          -0.000072959    0.000004358   -0.000049739
     20        1          -0.000006018    0.000005293    0.000024636
     21        1          -0.000003124   -0.000010508   -0.000012461
     22        1          -0.000004339   -0.000002920   -0.000017859
     23        1          -0.000000823    0.000002067   -0.000003527
     24        1          -0.000001286    0.000005504   -0.000005385
     25        1          -0.000001421   -0.000007634   -0.000002947
     26        1           0.000001115   -0.000008484   -0.000002859
     27        1          -0.000002949   -0.000007129   -0.000001800
 -------------------------------------------------------------------
 Cartesian Forces:  Max     0.000180973 RMS     0.000041395

 GradGradGradGradGradGradGradGradGradGradGradGradGradGradGradGradGradGrad
 Berny optimization.
 Using GEDIIS/GDIIS optimizer.
 FormGI is forming the generalized inverse of G from B-inverse, IUseBI=4.
 Internal  Forces:  Max     0.000136828 RMS     0.000030880
 Search for a local minimum.
 Step number  17 out of a maximum of  135
 All quantities printed in internal units (Hartrees-Bohrs-Radians)
 Mixed Optimization -- En-DIIS/RFO-DIIS
 Swapping is turned off.
 Update second derivatives using D2CorX and points    7    8    9   10   11
                                                     12   13   14   15   16
                                                     17
 DE= -2.12D-06 DEPred=-2.76D-06 R= 7.66D-01
 TightC=F SS=  1.41D+00  RLast= 5.75D-02 DXNew= 5.4395D-01 1.7254D-01
 Trust test= 7.66D-01 RLast= 5.75D-02 DXMaxT set to 3.23D-01
 ITU=  1  1 -1  1 -1  1  0 -1  1  1 -1  1  1  0  1  1  0
     Eigenvalues ---    0.00114   0.00362   0.00368   0.00471   0.00669
     Eigenvalues ---    0.00797   0.00876   0.01058   0.01265   0.02378
     Eigenvalues ---    0.02433   0.03183   0.04168   0.04567   0.04750
     Eigenvalues ---    0.05027   0.05180   0.05376   0.05551   0.05661
     Eigenvalues ---    0.05724   0.05783   0.06521   0.07415   0.07662
     Eigenvalues ---    0.09059   0.13180   0.15284   0.15509   0.15895
     Eigenvalues ---    0.15999   0.16002   0.16006   0.16012   0.16053
     Eigenvalues ---    0.16101   0.16145   0.16484   0.17062   0.17849
     Eigenvalues ---    0.20521   0.21988   0.22158   0.24534   0.24988
     Eigenvalues ---    0.25270   0.26206   0.27136   0.29362   0.29995
     Eigenvalues ---    0.30465   0.32123   0.32932   0.34582   0.34781
     Eigenvalues ---    0.34806   0.34807   0.34811   0.34813   0.34817
     Eigenvalues ---    0.34822   0.34826   0.34844   0.34883   0.34969
     Eigenvalues ---    0.36022   0.36517   0.38085   0.53334   0.53771
     Eigenvalues ---    0.55864   0.57622   0.97935   0.98237   1.01199
 En-DIIS/RFO-DIIS/Sim-DIIS IScMMF=       -3 using points:    17   16   15   14   13   12   11   10    9    8
 RFO step:  Lambda=-1.24101579D-06.
 DidBck=F Rises=F RFO-DIIS coefs:    1.37075   -0.23509   -0.05777   -0.03284   -0.02227
                  RFO-DIIS coefs:   -0.54563    0.24010    0.31789   -0.18612    0.15098
 Iteration  1 RMS(Cart)=  0.00197012 RMS(Int)=  0.00000548
 Iteration  2 RMS(Cart)=  0.00000248 RMS(Int)=  0.00000512
 Iteration  3 RMS(Cart)=  0.00000000 RMS(Int)=  0.00000512
 Variable       Old X    -DE/DX   Delta X   Delta X   Delta X     New X
                                 (Linear)    (Quad)   (Total)
    R1        2.75011   0.00001  -0.00000   0.00003   0.00003   2.75014
    R2        2.51153   0.00000  -0.00001   0.00007   0.00007   2.51160
    R3        1.90490   0.00000  -0.00015   0.00010  -0.00005   1.90485
    R4        2.05668   0.00001  -0.00001  -0.00001  -0.00002   2.05666
    R5        2.05039  -0.00000  -0.00000   0.00001   0.00000   2.05040
    R6        2.05722   0.00000  -0.00000   0.00002   0.00002   2.05724
    R7        2.33858   0.00006  -0.00002  -0.00001  -0.00002   2.33855
    R8        2.87180  -0.00008   0.00010  -0.00015  -0.00005   2.87175
    R9        2.74244  -0.00010   0.00016  -0.00027  -0.00011   2.74234
   R10        2.89199   0.00003  -0.00017   0.00030   0.00013   2.89211
   R11        2.05733   0.00000  -0.00002  -0.00000  -0.00003   2.05730
   R12        2.50598   0.00001   0.00003   0.00001   0.00004   2.50603
   R13        1.91245  -0.00001  -0.00013   0.00006  -0.00007   1.91238
   R14        2.91483   0.00000   0.00012  -0.00012  -0.00000   2.91483
   R15        2.32641  -0.00005  -0.00005  -0.00003  -0.00008   2.32633
   R16        2.05827   0.00001   0.00001  -0.00000   0.00001   2.05828
   R17        2.05746  -0.00001   0.00003  -0.00003   0.00000   2.05747
   R18        2.05957   0.00002  -0.00001   0.00001   0.00001   2.05958
   R19        2.81528   0.00000  -0.00005   0.00008   0.00003   2.81531
   R20        2.28774  -0.00003  -0.00005   0.00001  -0.00004   2.28770
   R21        2.86914  -0.00001  -0.00003   0.00001  -0.00003   2.86911
   R22        2.06630   0.00001   0.00005  -0.00003   0.00002   2.06632
   R23        2.06649   0.00000   0.00001  -0.00000   0.00001   2.06650
   R24        2.05875   0.00000   0.00002  -0.00001   0.00001   2.05875
   R25        2.05715   0.00000  -0.00002   0.00002  -0.00000   2.05715
   R26        2.05878   0.00000   0.00002  -0.00001   0.00000   2.05878
    A1        2.12058   0.00005  -0.00005   0.00011   0.00009   2.12068
    A2        2.08955  -0.00000   0.00003   0.00002   0.00008   2.08963
    A3        2.07161  -0.00005   0.00001  -0.00011  -0.00008   2.07153
    A4        1.92744  -0.00003  -0.00002  -0.00003  -0.00004   1.92740
    A5        1.88880   0.00001  -0.00013   0.00014   0.00001   1.88881
    A6        1.92885   0.00001  -0.00001  -0.00002  -0.00003   1.92882
    A7        1.90700   0.00001   0.00010  -0.00001   0.00009   1.90709
    A8        1.90322   0.00000   0.00006  -0.00001   0.00005   1.90327
    A9        1.90832   0.00000  -0.00001  -0.00008  -0.00008   1.90823
   A10        2.14764   0.00010  -0.00009   0.00024   0.00016   2.14780
   A11        2.02470  -0.00014   0.00002  -0.00027  -0.00025   2.02446
   A12        2.11027   0.00003   0.00007   0.00000   0.00007   2.11034
   A13        1.87912  -0.00001   0.00004  -0.00017  -0.00012   1.87900
   A14        1.91297  -0.00008   0.00041  -0.00010   0.00031   1.91328
   A15        1.91610   0.00003  -0.00013  -0.00014  -0.00027   1.91583
   A16        1.94602   0.00006  -0.00013   0.00021   0.00009   1.94610
   A17        1.89095  -0.00000  -0.00004  -0.00004  -0.00008   1.89087
   A18        1.91812   0.00001  -0.00017   0.00024   0.00006   1.91818
   A19        2.13459  -0.00004   0.00012  -0.00031  -0.00019   2.13440
   A20        2.07087  -0.00005  -0.00029   0.00005  -0.00024   2.07063
   A21        2.07661   0.00009   0.00004   0.00024   0.00028   2.07689
   A22        1.98928   0.00003  -0.00004   0.00012   0.00009   1.98936
   A23        2.18804  -0.00001   0.00007  -0.00014  -0.00006   2.18797
   A24        2.10585  -0.00001  -0.00006   0.00003  -0.00003   2.10583
   A25        1.92264  -0.00004   0.00005  -0.00007  -0.00003   1.92262
   A26        1.90927   0.00002  -0.00007   0.00014   0.00006   1.90933
   A27        1.91993   0.00002   0.00015   0.00004   0.00020   1.92012
   A28        1.89923   0.00001  -0.00004  -0.00007  -0.00011   1.89912
   A29        1.90693   0.00001  -0.00008   0.00001  -0.00006   1.90686
   A30        1.90562  -0.00002  -0.00001  -0.00005  -0.00006   1.90556
   A31        2.02646  -0.00002  -0.00000  -0.00004  -0.00004   2.02642
   A32        2.07987   0.00001   0.00002  -0.00000   0.00002   2.07990
   A33        2.17685   0.00001  -0.00003   0.00004   0.00002   2.17687
   A34        1.97175   0.00001  -0.00004   0.00006   0.00002   1.97177
   A35        1.86602  -0.00001  -0.00003   0.00003   0.00000   1.86602
   A36        1.86634  -0.00000   0.00010  -0.00008   0.00002   1.86636
   A37        1.95571   0.00000   0.00003  -0.00004  -0.00001   1.95570
   A38        1.95605   0.00000   0.00011  -0.00007   0.00004   1.95610
   A39        1.83976  -0.00000  -0.00018   0.00010  -0.00008   1.83968
   A40        1.93587   0.00000  -0.00004   0.00001  -0.00002   1.93585
   A41        1.91760   0.00000   0.00008  -0.00004   0.00004   1.91765
   A42        1.93618  -0.00000   0.00001  -0.00003  -0.00002   1.93616
   A43        1.89160  -0.00000  -0.00001   0.00002   0.00000   1.89161
   A44        1.88980   0.00000  -0.00004   0.00002  -0.00002   1.88978
   A45        1.89155   0.00000  -0.00001   0.00002   0.00001   1.89156
    D1        1.08035  -0.00000  -0.00132  -0.00027  -0.00159   1.07876
    D2       -3.11618  -0.00001  -0.00129  -0.00021  -0.00150  -3.11768
    D3       -1.02708   0.00000  -0.00138  -0.00023  -0.00161  -1.02869
    D4       -2.11960   0.00000   0.00016   0.00023   0.00040  -2.11920
    D5       -0.03294  -0.00000   0.00019   0.00030   0.00049  -0.03245
    D6        2.05616   0.00001   0.00010   0.00027   0.00038   2.05653
    D7       -0.05134   0.00003   0.00077   0.00033   0.00109  -0.05025
    D8        3.05417  -0.00006   0.00111  -0.00044   0.00067   3.05484
    D9       -3.13516   0.00002  -0.00071  -0.00018  -0.00089  -3.13605
   D10       -0.02964  -0.00007  -0.00037  -0.00095  -0.00131  -0.03095
   D11        2.66978   0.00003   0.00262   0.00029   0.00291   2.67269
   D12       -1.49375   0.00005   0.00275   0.00038   0.00312  -1.49062
   D13        0.61470   0.00003   0.00270   0.00052   0.00322   0.61793
   D14       -0.50706  -0.00005   0.00296  -0.00046   0.00250  -0.50456
   D15        1.61260  -0.00003   0.00309  -0.00037   0.00272   1.61531
   D16       -2.56214  -0.00006   0.00304  -0.00023   0.00281  -2.55932
   D17       -2.76318  -0.00005   0.00060  -0.00044   0.00016  -2.76302
   D18        0.42963  -0.00002   0.00320   0.00018   0.00338   0.43302
   D19        1.42108   0.00002   0.00014  -0.00033  -0.00019   1.42089
   D20       -1.66929   0.00005   0.00274   0.00029   0.00303  -1.66626
   D21       -0.69191  -0.00002   0.00045  -0.00073  -0.00027  -0.69218
   D22        2.50091   0.00000   0.00305  -0.00010   0.00295   2.50386
   D23        1.11641   0.00001   0.00030  -0.00003   0.00027   1.11668
   D24       -3.07986   0.00001   0.00023  -0.00007   0.00016  -3.07970
   D25       -0.98675   0.00001   0.00027  -0.00003   0.00024  -0.98651
   D26       -3.08788  -0.00002   0.00056  -0.00018   0.00038  -3.08751
   D27       -1.00097  -0.00002   0.00048  -0.00022   0.00027  -1.00070
   D28        1.09214  -0.00002   0.00052  -0.00017   0.00035   1.09249
   D29       -0.99082   0.00002   0.00032   0.00006   0.00038  -0.99045
   D30        1.09610   0.00002   0.00024   0.00002   0.00027   1.09636
   D31       -3.09398   0.00002   0.00028   0.00006   0.00035  -3.09363
   D32       -3.11741   0.00001   0.00130   0.00022   0.00152  -3.11589
   D33        0.03057   0.00001   0.00209  -0.00024   0.00185   0.03242
   D34       -0.02720  -0.00002  -0.00131  -0.00042  -0.00173  -0.02893
   D35        3.12078  -0.00002  -0.00052  -0.00087  -0.00140   3.11938
   D36       -3.11292   0.00001   0.00028   0.00109   0.00138  -3.11155
   D37        0.03059   0.00000   0.00050   0.00092   0.00142   0.03200
   D38        0.02262   0.00000  -0.00047   0.00153   0.00106   0.02368
   D39       -3.11706  -0.00000  -0.00025   0.00135   0.00110  -3.11596
   D40        3.13945  -0.00001   0.00026  -0.00023   0.00004   3.13949
   D41       -0.98436  -0.00000   0.00025  -0.00021   0.00004  -0.98432
   D42        0.97940  -0.00001   0.00008  -0.00012  -0.00005   0.97936
   D43       -0.00418  -0.00000   0.00003  -0.00004  -0.00001  -0.00419
   D44        2.15520   0.00000   0.00002  -0.00003  -0.00001   2.15519
   D45       -2.16423  -0.00001  -0.00015   0.00006  -0.00009  -2.16432
   D46        1.05157  -0.00000   0.00026   0.00007   0.00033   1.05190
   D47       -3.14058  -0.00000   0.00027   0.00007   0.00035  -3.14023
   D48       -1.04942  -0.00000   0.00032   0.00005   0.00038  -1.04904
   D49       -1.05755  -0.00000   0.00030   0.00001   0.00032  -1.05724
   D50        1.03348  -0.00000   0.00032   0.00002   0.00034   1.03382
   D51        3.12465  -0.00000   0.00037  -0.00000   0.00037   3.12501
   D52       -3.12181   0.00000   0.00045  -0.00004   0.00040  -3.12141
   D53       -1.03077   0.00000   0.00046  -0.00004   0.00042  -1.03035
   D54        1.06039   0.00000   0.00051  -0.00006   0.00045   1.06084
         Item               Value     Threshold  Converged?
 Maximum Force            0.000137     0.000450     YES
 RMS     Force            0.000031     0.000300     YES
 Maximum Displacement     0.009091     0.001800     NO 
 RMS     Displacement     0.001970     0.001200     NO 
 Predicted change in Energy=-1.378862D-08
 GradGradGradGradGradGradGradGradGradGradGradGradGradGradGradGradGradGrad

                          Input orientation:                          
 ---------------------------------------------------------------------
 Center     Atomic      Atomic             Coordinates (Angstroms)
 Number     Number       Type             X           Y           Z
 ---------------------------------------------------------------------
      1          7           0       -3.439761    1.242912    0.962905
      2          6           0       -4.534869    0.419986    1.454289
      3          6           0       -2.340582    0.701202    0.448306
      4          8           0       -2.149634   -0.520477    0.398639
      5          6           0       -1.328041    1.673931   -0.133022
      6          7           0       -0.019804    1.051963   -0.045860
      7          6           0        1.102874    1.757514   -0.066326
      8          6           0       -1.699758    1.997954   -1.581844
      9          6           0        2.383390    0.900294    0.001739
     10          8           0        1.171819    2.985173   -0.125967
     11          6           0        3.672126    1.647452    0.021955
     12          8           0        2.285013   -0.305909    0.032592
     13          6           0        4.884433    0.736133    0.092336
     14          1           0       -3.528914    2.246962    0.965360
     15          1           0       -4.199707   -0.204945    2.279886
     16          1           0       -5.324679    1.078151    1.801121
     17          1           0       -4.919562   -0.217143    0.659792
     18          1           0       -1.313134    2.587464    0.458971
     19          1           0        0.036000    0.041986   -0.015043
     20          1           0       -2.659148    2.512414   -1.617131
     21          1           0       -0.938358    2.644883   -2.014463
     22          1           0       -1.762794    1.079454   -2.165132
     23          1           0        3.686286    2.281489   -0.868790
     24          1           0        3.626980    2.337538    0.869059
     25          1           0        4.921780    0.071258   -0.769894
     26          1           0        5.795206    1.332244    0.105852
     27          1           0        4.860335    0.125217    0.994071
 ---------------------------------------------------------------------
                    Distance matrix (angstroms):
                    1          2          3          4          5
     1  N    0.000000
     2  C    1.455310   0.000000
     3  C    1.329080   2.430222   0.000000
     4  O    2.256626   2.772762   1.237509   0.000000
     5  C    2.417890   3.791527   1.519665   2.402728   0.000000
     6  N    3.570739   4.799547   2.398592   2.684460   1.451181
     7  C    4.686114   5.990442   3.638411   3.998030   2.433266
     8  C    3.173869   4.443640   2.492736   3.235305   1.530441
     9  C    5.911879   7.085401   4.749208   4.767015   3.793600
    10  O    5.048543   6.453191   4.228862   4.857658   2.822890
    11  C    7.185261   8.420987   6.101625   6.223721   5.002639
    12  O    6.003113   7.004208   4.752181   4.454899   4.123270
    13  C    8.384922   9.522506   7.233863   7.151992   6.286898
    14  H    1.008003   2.142157   2.017139   3.143613   2.525599
    15  H    2.099583   1.088339   2.762631   2.800259   4.195088
    16  H    2.069462   1.085023   3.298035   3.821450   4.479841
    17  H    2.100821   1.088644   2.745764   2.798698   4.135666
    18  H    2.565991   4.008515   2.147963   3.219110   1.088678
    19  H    3.805196   4.816084   2.509463   2.294449   2.130205
    20  H    2.979526   4.162956   2.765503   3.677140   2.162748
    21  H    4.133673   5.469670   3.436475   4.160499   2.152770
    22  H    3.552963   4.606463   2.703141   3.046694   2.161453
    23  H    7.430632   8.743528   6.368296   6.596617   5.104308
    24  H    7.151631   8.404479   6.202130   6.462105   5.098703
    25  H    8.619207   9.720946   7.390720   7.191698   6.483397
    26  H    9.275081  10.457578   8.167407   8.163259   7.135438
    27  H    8.375070   9.411086   7.244503   7.064781   6.478029
                    6          7          8          9         10
     6  N    0.000000
     7  C    1.326132   0.000000
     8  C    2.465034   3.195208   0.000000
     9  C    2.408446   1.542460   4.514941   0.000000
    10  O    2.272374   1.231039   3.367512   2.414733   0.000000
    11  C    3.740261   2.573123   5.617132   1.489797   2.839528
    12  O    2.676220   2.380116   4.877765   1.210601   3.477868
    13  C    4.916339   3.920278   6.909895   2.508061   4.346187
    14  H    3.842453   4.770471   3.145801   6.139823   4.881889
    15  H    4.945756   6.121546   5.100536   7.053274   6.694645
    16  H    5.617271   6.727729   5.042870   7.917307   7.039524
    17  H    5.110402   6.379362   4.505411   7.417197   6.926555
    18  H    2.070101   2.608035   2.159149   4.088997   2.583663
    19  H    1.011987   2.020863   3.048530   2.499443   3.156697
    20  H    3.401169   4.138561   1.089194   5.535961   4.138041
    21  H    2.693795   2.957920   1.088764   4.259422   2.852202
    22  H    2.744100   3.616187   1.089881   4.681696   4.049928
    23  H    3.990495   2.755452   5.440433   2.088794   2.714683
    24  H    3.973513   2.753630   5.873362   2.089121   2.727145
    25  H    5.089720   4.233498   6.943788   2.779593   4.792468
    26  H    5.823737   4.714709   7.711419   3.440626   4.915448
    27  H    5.075044   4.231707   7.292277   2.778619   4.799894
                   11         12         13         14         15
    11  C    0.000000
    12  O    2.395791   0.000000
    13  C    1.518270   2.801144   0.000000
    14  H    7.287277   6.417862   8.592391   0.000000
    15  H    8.396153   6.863827   9.391092   2.861781   0.000000
    16  H    9.188691   7.934150  10.356781   2.299867   1.772319
    17  H    8.814798   7.232369   9.866563   2.845890   1.772863
    18  H    5.091898   4.636816   6.478556   2.298272   4.409715
    19  H    3.974959   2.276260   4.899048   4.304849   4.823784
    20  H    6.596954   5.925307   7.936188   2.737922   4.994407
    21  H    5.137940   4.825736   6.479724   3.968459   6.099127
    22  H    5.885944   4.809778   7.028489   3.779184   5.229379
    23  H    1.093449   3.077448   2.178863   7.444757   8.847904
    24  H    1.093545   3.080318   2.179217   7.157114   8.349352
    25  H    2.161723   2.781866   1.089446   8.897135   9.621796
    26  H    2.147991   3.874322   1.088595   9.408224  10.343484
    27  H    2.161954   2.782551   1.089461   8.653445   9.156784
                   16         17         18         19         20
    16  H    0.000000
    17  H    1.773285   0.000000
    18  H    4.491313   4.573016   0.000000
    19  H    5.754040   5.008009   2.919642   0.000000
    20  H    4.565809   4.212402   2.475396   3.991682   0.000000
    21  H    6.021058   5.585053   2.502324   3.423759   1.771028
    22  H    5.330871   4.430185   3.059772   2.989127   1.776832
    23  H    9.474912   9.090674   5.181773   4.366789   6.393581
    24  H    9.087739   8.922643   4.963402   4.352737   6.762183
    25  H   10.611969   9.948828   6.834877   4.943834   8.009215
    26  H   11.251238  10.840374   7.226947   5.903205   8.708478
    27  H   10.261283   9.791595   6.667886   4.929446   8.310217
                   21         22         23         24         25
    21  H    0.000000
    22  H    1.775659   0.000000
    23  H    4.778279   5.728688   0.000000
    24  H    5.408462   6.311794   1.739764   0.000000
    25  H    6.520254   6.902657   2.534037   3.081995   0.000000
    26  H    7.180504   7.895862   2.509689   2.508846   1.766321
    27  H    7.001773   7.399795   3.081907   2.535972   1.765859
                   26         27
    26  H    0.000000
    27  H    1.766304   0.000000
 Stoichiometry    C8H14N2O3
 Framework group  C1[X(C8H14N2O3)]
 Deg. of freedom    75
 Full point group                 C1      NOp   1
 Largest Abelian subgroup         C1      NOp   1
 Largest concise Abelian subgroup C1      NOp   1
                         Standard orientation:                         
 ---------------------------------------------------------------------
 Center     Atomic      Atomic             Coordinates (Angstroms)
 Number     Number       Type             X           Y           Z
 ---------------------------------------------------------------------
      1          7           0        3.467974    0.038482   -0.608480
      2          6           0        4.640561   -0.823362   -0.622314
      3          6           0        2.351564   -0.317690    0.018595
      4          8           0        2.212872   -1.410987    0.581527
      5          6           0        1.245873    0.724238    0.053483
      6          7           0       -0.018751    0.020659    0.161324
      7          6           0       -1.169532    0.572635   -0.198750
      8          6           0        1.465827    1.667598    1.238363
      9          6           0       -2.397608   -0.332127    0.030196
     10          8           0       -1.299784    1.697019   -0.682747
     11          6           0       -3.711663    0.226288   -0.395157
     12          8           0       -2.241744   -1.422459    0.532629
     13          6           0       -4.869209   -0.722574   -0.140419
     14          1           0        3.510973    0.947953   -1.041013
     15          1           0        4.412675   -1.767073   -1.114209
     16          1           0        5.428324   -0.315673   -1.169083
     17          1           0        4.978306   -1.024322    0.392915
     18          1           0        1.244420    1.290877   -0.876107
     19          1           0       -0.025211   -0.905699    0.568676
     20          1           0        2.393233    2.223766    1.108214
     21          1           0        0.638666    2.373108    1.297246
     22          1           0        1.516187    1.096679    2.165378
     23          1           0       -3.837697    1.177661    0.128900
     24          1           0       -3.619410    0.487362   -1.453066
     25          1           0       -4.956266   -0.953843    0.920632
     26          1           0       -5.801060   -0.266355   -0.469898
     27          1           0       -4.733324   -1.657051   -0.683754
 ---------------------------------------------------------------------
 Rotational constants (GHZ):           1.9339672           0.3304731           0.3041906
 Standard basis: 6-311+G(d,p) (5D, 7F)
 There are   383 symmetry adapted cartesian basis functions of A   symmetry.
 There are   370 symmetry adapted basis functions of A   symmetry.
   370 basis functions,   580 primitive gaussians,   383 cartesian basis functions
    50 alpha electrons       50 beta electrons
       nuclear repulsion energy       812.0907149598 Hartrees.
 NAtoms=   27 NActive=   27 NUniq=   27 SFac= 1.00D+00 NAtFMM=   60 NAOKFM=F Big=F
 Integral buffers will be    131072 words long.
 Raffenetti 2 integral format.
 Two-electron integral symmetry is turned on.
 ------------------------------------------------------------------------------
 Polarizable Continuum Model (PCM)
 =================================
 Model                : PCM.
 Atomic radii         : SMD-Coulomb.
 Polarization charges : Total charges.
 Charge compensation  : None.
 Solution method      : On-the-fly selection.
 Cavity type          : VdW (van der Waals Surface) (Alpha=1.000).
 Cavity algorithm     : GePol (No added spheres)
                        Default sphere list used, NSphG=   27.
                        Lebedev-Laikov grids with approx.  5.0 points / Ang**2.
                        Smoothing algorithm: York/Karplus (Gamma=1.0000).
                        Polarization charges: spherical gaussians, with
                                              point-specific exponents (IZeta= 3).
                        Self-potential: point-specific (ISelfS= 7).
                        Self-field    : sphere-specific E.n sum rule (ISelfD= 2).
 1st derivatives      : Analytical E(r).r(x)/FMM algorithm (CHGder, D1EAlg=3).
                        Cavity 1st derivative terms included.
 Solvent              : Water, Eps=  78.355300 Eps(inf)=   1.777849
 ------------------------------------------------------------------------------
 ------------------------------------------------------------------------------
 Atomic radii for non-electrostatic terms: SMD-CDS.
 ------------------------------------------------------------------------------
 Nuclear repulsion after PCM non-electrostatic terms =      812.1010396337 Hartrees.
 One-electron integrals computed using PRISM.
 NBasis=   370 RedAO= T EigKep=  5.32D-06  NBF=   370
 NBsUse=   370 1.00D-06 EigRej= -1.00D+00 NBFU=   370
 Initial guess from the checkpoint file:  "2KT_3D.chk"
 B after Tr=    -0.000000   -0.000000    0.000000
         Rot=    1.000000   -0.000348    0.000034    0.000024 Ang=  -0.04 deg.
 Requested convergence on RMS density matrix=1.00D-08 within 128 cycles.
 Requested convergence on MAX density matrix=1.00D-06.
 Requested convergence on             energy=1.00D-06.
 No special actions if energy rises.
 Inv3:  Mode=1 IEnd=    11466075.
 Iteration    1 A*A^-1 deviation from unit magnitude is 5.55D-15 for    627.
 Iteration    1 A*A^-1 deviation from orthogonality  is 2.66D-15 for   1930   1697.
 Iteration    1 A^-1*A deviation from unit magnitude is 5.88D-15 for    828.
 Iteration    1 A^-1*A deviation from orthogonality  is 2.01D-14 for   1311   1294.
 Error on total polarization charges =  0.05801
 SCF Done:  E(RM052X) =  -648.621291464     A.U. after    9 cycles
            NFock=  9  Conv=0.54D-08     -V/T= 2.0038
 SMD-CDS (non-electrostatic) energy       (kcal/mol) =       6.48
 (included in total energy above)
 D1PCM: PCM CHGder 1st derivatives, ID1Alg=3 FixD1E=F DoIter=F DoCFld=F I1PDM=0.
 Calling FoFJK, ICntrl=      2127 FMM=F ISym2X=0 I1Cent= 0 IOpClX= 0 NMat=1 NMatS=1 NMatT=0.
 ***** Axes restored to original set *****
 -------------------------------------------------------------------
 Center     Atomic                   Forces (Hartrees/Bohr)
 Number     Number              X              Y              Z
 -------------------------------------------------------------------
      1        7           0.000007439   -0.000025380   -0.000062764
      2        6          -0.000048814    0.000043814   -0.000048182
      3        6           0.000086449    0.000029881    0.000121098
      4        8          -0.000042178   -0.000067814   -0.000090404
      5        6           0.000089108    0.000022133    0.000015684
      6        7          -0.000007940    0.000033181    0.000054131
      7        6          -0.000008778    0.000012564   -0.000002882
      8        6          -0.000054009   -0.000004221    0.000007301
      9        6           0.000003727   -0.000000918   -0.000002511
     10        8           0.000008605    0.000006470   -0.000017865
     11        6           0.000003741   -0.000011487   -0.000000581
     12        8          -0.000003547   -0.000003207   -0.000007432
     13        6          -0.000006224   -0.000005501   -0.000002192
     14        1           0.000021265    0.000025700    0.000019188
     15        1           0.000009932   -0.000002128    0.000008211
     16        1           0.000008352    0.000000081    0.000009423
     17        1           0.000004379   -0.000007579    0.000011594
     18        1          -0.000027757    0.000021855   -0.000010529
     19        1          -0.000044705   -0.000020615   -0.000015361
     20        1          -0.000002786    0.000001785    0.000025095
     21        1           0.000006238   -0.000010484   -0.000000575
     22        1           0.000000362   -0.000011134   -0.000002098
     23        1          -0.000001142   -0.000006480   -0.000000544
     24        1          -0.000001427   -0.000000328   -0.000001818
     25        1          -0.000000324   -0.000007284   -0.000001388
     26        1          -0.000000538   -0.000007359   -0.000003696
     27        1           0.000000573   -0.000005543   -0.000000903
 -------------------------------------------------------------------
 Cartesian Forces:  Max     0.000121098 RMS     0.000029972

 GradGradGradGradGradGradGradGradGradGradGradGradGradGradGradGradGradGrad
 Berny optimization.
 Using GEDIIS/GDIIS optimizer.
 FormGI is forming the generalized inverse of G from B-inverse, IUseBI=4.
 Internal  Forces:  Max     0.000120065 RMS     0.000026371
 Search for a local minimum.
 Step number  18 out of a maximum of  135
 All quantities printed in internal units (Hartrees-Bohrs-Radians)
 Mixed Optimization -- En-DIIS/RFO-DIIS
 Swapping is turned off.
 Update second derivatives using D2CorX and points    7    8    9   10   11
                                                     12   13   14   15   16
                                                     17   18
 DE=  1.35D-07 DEPred=-1.38D-08 R=-9.77D+00
 Trust test=-9.77D+00 RLast= 1.06D-02 DXMaxT set to 1.62D-01
 ITU= -1  1  1 -1  1 -1  1  0 -1  1  1 -1  1  1  0  1  1  0
     Eigenvalues ---    0.00108   0.00359   0.00368   0.00445   0.00671
     Eigenvalues ---    0.00766   0.00829   0.00964   0.01246   0.02388
     Eigenvalues ---    0.02451   0.03184   0.04185   0.04538   0.04828
     Eigenvalues ---    0.05047   0.05202   0.05309   0.05553   0.05661
     Eigenvalues ---    0.05712   0.05783   0.06612   0.07420   0.07670
     Eigenvalues ---    0.09074   0.13184   0.14803   0.15663   0.15902
     Eigenvalues ---    0.16000   0.16003   0.16006   0.16024   0.16048
     Eigenvalues ---    0.16111   0.16151   0.16498   0.17420   0.17923
     Eigenvalues ---    0.20941   0.21996   0.22136   0.24546   0.25095
     Eigenvalues ---    0.25281   0.26318   0.27305   0.29262   0.29957
     Eigenvalues ---    0.30788   0.32171   0.32934   0.34605   0.34783
     Eigenvalues ---    0.34806   0.34808   0.34811   0.34815   0.34820
     Eigenvalues ---    0.34823   0.34836   0.34845   0.34883   0.34967
     Eigenvalues ---    0.36124   0.36526   0.38127   0.53335   0.53988
     Eigenvalues ---    0.55943   0.57561   0.97925   0.98256   1.01297
 En-DIIS/RFO-DIIS/Sim-DIIS IScMMF=       -3 using points:    18   17   16   15   14   13   12   11   10    9
 RFO step:  Lambda=-1.53901045D-06.
 DidBck=F Rises=F RFO-DIIS coefs:    1.80860   -0.66002   -0.13227   -0.03827   -0.08117
                  RFO-DIIS coefs:    0.09443   -0.46833    0.33455    0.09479    0.04770
 Iteration  1 RMS(Cart)=  0.00088934 RMS(Int)=  0.00000501
 Iteration  2 RMS(Cart)=  0.00000082 RMS(Int)=  0.00000499
 Variable       Old X    -DE/DX   Delta X   Delta X   Delta X     New X
                                 (Linear)    (Quad)   (Total)
    R1        2.75014   0.00000   0.00004  -0.00008  -0.00004   2.75010
    R2        2.51160  -0.00003   0.00005  -0.00005  -0.00000   2.51159
    R3        1.90485   0.00002   0.00004  -0.00002   0.00002   1.90487
    R4        2.05666   0.00001  -0.00002   0.00003   0.00001   2.05667
    R5        2.05040  -0.00001   0.00001  -0.00002  -0.00001   2.05039
    R6        2.05724  -0.00000   0.00000  -0.00000   0.00000   2.05724
    R7        2.33855   0.00007  -0.00005   0.00005  -0.00000   2.33855
    R8        2.87175  -0.00003   0.00006  -0.00001   0.00005   2.87180
    R9        2.74234  -0.00007  -0.00007   0.00004  -0.00003   2.74230
   R10        2.89211  -0.00002   0.00020  -0.00023  -0.00003   2.89209
   R11        2.05730   0.00001  -0.00004   0.00005   0.00001   2.05732
   R12        2.50603   0.00001   0.00009  -0.00006   0.00004   2.50606
   R13        1.91238   0.00002   0.00001  -0.00000   0.00000   1.91238
   R14        2.91483  -0.00000  -0.00020   0.00021   0.00001   2.91483
   R15        2.32633   0.00001  -0.00009   0.00006  -0.00003   2.32630
   R16        2.05828   0.00000  -0.00003   0.00004   0.00001   2.05829
   R17        2.05747  -0.00000  -0.00002  -0.00000  -0.00002   2.05745
   R18        2.05958   0.00002   0.00002  -0.00002   0.00000   2.05958
   R19        2.81531  -0.00001   0.00014  -0.00018  -0.00004   2.81527
   R20        2.28770   0.00000  -0.00001  -0.00000  -0.00001   2.28769
   R21        2.86911  -0.00000   0.00002  -0.00004  -0.00002   2.86909
   R22        2.06632  -0.00000  -0.00001   0.00001  -0.00000   2.06632
   R23        2.06650   0.00000  -0.00001   0.00003   0.00002   2.06652
   R24        2.05875  -0.00000  -0.00001   0.00001   0.00000   2.05876
   R25        2.05715  -0.00000   0.00001  -0.00001  -0.00001   2.05714
   R26        2.05878   0.00000  -0.00001   0.00002   0.00001   2.05879
    A1        2.12068   0.00004   0.00001   0.00006   0.00009   2.12077
    A2        2.08963  -0.00001   0.00011  -0.00008   0.00005   2.08969
    A3        2.07153  -0.00003  -0.00011   0.00004  -0.00005   2.07149
    A4        1.92740  -0.00002  -0.00003  -0.00002  -0.00005   1.92735
    A5        1.88881   0.00000   0.00007  -0.00009  -0.00002   1.88879
    A6        1.92882   0.00002  -0.00002   0.00009   0.00007   1.92889
    A7        1.90709  -0.00000   0.00002  -0.00000   0.00002   1.90711
    A8        1.90327  -0.00001   0.00004  -0.00004   0.00001   1.90328
    A9        1.90823   0.00000  -0.00008   0.00006  -0.00002   1.90821
   A10        2.14780   0.00004  -0.00000   0.00003   0.00004   2.14784
   A11        2.02446  -0.00010  -0.00019   0.00001  -0.00017   2.02429
   A12        2.11034   0.00005   0.00014  -0.00003   0.00011   2.11045
   A13        1.87900   0.00003   0.00019  -0.00007   0.00013   1.87913
   A14        1.91328  -0.00012  -0.00027  -0.00018  -0.00045   1.91282
   A15        1.91583   0.00004  -0.00023   0.00027   0.00005   1.91587
   A16        1.94610   0.00006   0.00023  -0.00001   0.00023   1.94633
   A17        1.89087  -0.00002   0.00004   0.00005   0.00010   1.89097
   A18        1.91818   0.00001   0.00001  -0.00004  -0.00003   1.91815
   A19        2.13440  -0.00001  -0.00037   0.00029  -0.00007   2.13433
   A20        2.07063  -0.00004  -0.00026   0.00020  -0.00005   2.07058
   A21        2.07689   0.00004   0.00054  -0.00051   0.00004   2.07693
   A22        1.98936  -0.00000   0.00015  -0.00022  -0.00007   1.98930
   A23        2.18797   0.00001  -0.00011   0.00011  -0.00000   2.18797
   A24        2.10583  -0.00001  -0.00004   0.00011   0.00007   2.10590
   A25        1.92262  -0.00003  -0.00028   0.00012  -0.00016   1.92246
   A26        1.90933   0.00001   0.00027  -0.00014   0.00012   1.90945
   A27        1.92012  -0.00001   0.00006  -0.00010  -0.00004   1.92008
   A28        1.89912   0.00002   0.00001   0.00004   0.00004   1.89917
   A29        1.90686   0.00001  -0.00001   0.00004   0.00004   1.90690
   A30        1.90556  -0.00000  -0.00005   0.00005   0.00000   1.90556
   A31        2.02642  -0.00001  -0.00006   0.00007   0.00001   2.02642
   A32        2.07990   0.00000   0.00002  -0.00003  -0.00002   2.07988
   A33        2.17687   0.00001   0.00004  -0.00003   0.00001   2.17688
   A34        1.97177   0.00001   0.00007  -0.00007  -0.00001   1.97177
   A35        1.86602  -0.00001   0.00009  -0.00013  -0.00004   1.86598
   A36        1.86636  -0.00000  -0.00007   0.00005  -0.00002   1.86635
   A37        1.95570   0.00000  -0.00003   0.00008   0.00005   1.95574
   A38        1.95610  -0.00000  -0.00009   0.00015   0.00006   1.95616
   A39        1.83968  -0.00000   0.00003  -0.00008  -0.00005   1.83963
   A40        1.93585   0.00000  -0.00000   0.00004   0.00004   1.93589
   A41        1.91765  -0.00000  -0.00001   0.00001  -0.00000   1.91765
   A42        1.93616  -0.00000  -0.00005   0.00005   0.00000   1.93616
   A43        1.89161  -0.00000   0.00003  -0.00005  -0.00001   1.89159
   A44        1.88978  -0.00000   0.00000  -0.00002  -0.00001   1.88977
   A45        1.89156   0.00000   0.00003  -0.00004  -0.00001   1.89155
    D1        1.07876   0.00000  -0.00129  -0.00006  -0.00136   1.07740
    D2       -3.11768  -0.00001  -0.00124  -0.00013  -0.00138  -3.11905
    D3       -1.02869   0.00001  -0.00131  -0.00006  -0.00138  -1.03007
    D4       -2.11920   0.00000   0.00053   0.00017   0.00071  -2.11850
    D5       -0.03245  -0.00001   0.00059   0.00010   0.00069  -0.03176
    D6        2.05653   0.00001   0.00052   0.00017   0.00069   2.05722
    D7       -0.05025   0.00002   0.00113  -0.00017   0.00096  -0.04929
    D8        3.05484  -0.00006   0.00034   0.00001   0.00034   3.05518
    D9       -3.13605   0.00002  -0.00070  -0.00039  -0.00109  -3.13713
   D10       -0.03095  -0.00006  -0.00150  -0.00022  -0.00171  -0.03266
   D11        2.67269   0.00003  -0.00024   0.00001  -0.00023   2.67245
   D12       -1.49062   0.00004   0.00001  -0.00016  -0.00015  -1.49077
   D13        0.61793   0.00000  -0.00030  -0.00016  -0.00045   0.61748
   D14       -0.50456  -0.00005  -0.00101   0.00018  -0.00084  -0.50540
   D15        1.61531  -0.00003  -0.00076   0.00001  -0.00075   1.61456
   D16       -2.55932  -0.00007  -0.00107   0.00001  -0.00106  -2.56038
   D17       -2.76302  -0.00007  -0.00151  -0.00059  -0.00210  -2.76513
   D18        0.43302  -0.00006  -0.00007  -0.00030  -0.00037   0.43265
   D19        1.42089   0.00002  -0.00145  -0.00031  -0.00176   1.41912
   D20       -1.66626   0.00004  -0.00000  -0.00002  -0.00003  -1.66629
   D21       -0.69218  -0.00001  -0.00164  -0.00028  -0.00193  -0.69411
   D22        2.50386   0.00000  -0.00020   0.00000  -0.00019   2.50367
   D23        1.11668  -0.00001   0.00022  -0.00007   0.00014   1.11682
   D24       -3.07970   0.00000   0.00021  -0.00004   0.00017  -3.07952
   D25       -0.98651  -0.00000   0.00036  -0.00014   0.00022  -0.98628
   D26       -3.08751  -0.00001   0.00044  -0.00029   0.00015  -3.08736
   D27       -1.00070  -0.00000   0.00044  -0.00026   0.00018  -1.00052
   D28        1.09249  -0.00001   0.00058  -0.00035   0.00023   1.09272
   D29       -0.99045   0.00001   0.00066  -0.00026   0.00040  -0.99005
   D30        1.09636   0.00002   0.00065  -0.00023   0.00043   1.09679
   D31       -3.09363   0.00002   0.00080  -0.00032   0.00048  -3.09315
   D32       -3.11589  -0.00000   0.00026   0.00032   0.00057  -3.11532
   D33        0.03242  -0.00001   0.00040   0.00027   0.00066   0.03308
   D34       -0.02893  -0.00002  -0.00122   0.00005  -0.00117  -0.03010
   D35        3.11938  -0.00003  -0.00108  -0.00000  -0.00108   3.11830
   D36       -3.11155  -0.00000   0.00100   0.00028   0.00128  -3.11027
   D37        0.03200  -0.00001   0.00109   0.00018   0.00127   0.03327
   D38        0.02368   0.00000   0.00087   0.00032   0.00119   0.02487
   D39       -3.11596  -0.00000   0.00095   0.00023   0.00118  -3.11478
   D40        3.13949  -0.00001  -0.00040  -0.00016  -0.00055   3.13893
   D41       -0.98432  -0.00000  -0.00033  -0.00020  -0.00053  -0.98485
   D42        0.97936  -0.00001  -0.00028  -0.00033  -0.00061   0.97874
   D43       -0.00419  -0.00001  -0.00048  -0.00005  -0.00054  -0.00472
   D44        2.15519  -0.00000  -0.00042  -0.00010  -0.00052   2.15468
   D45       -2.16432  -0.00001  -0.00037  -0.00023  -0.00060  -2.16492
   D46        1.05190  -0.00000   0.00015  -0.00022  -0.00007   1.05183
   D47       -3.14023  -0.00000   0.00018  -0.00025  -0.00006  -3.14029
   D48       -1.04904  -0.00000   0.00018  -0.00026  -0.00008  -1.04912
   D49       -1.05724  -0.00000   0.00001  -0.00005  -0.00004  -1.05728
   D50        1.03382   0.00000   0.00004  -0.00008  -0.00004   1.03378
   D51        3.12501  -0.00000   0.00004  -0.00009  -0.00005   3.12496
   D52       -3.12141  -0.00000   0.00005  -0.00010  -0.00005  -3.12146
   D53       -1.03035  -0.00000   0.00008  -0.00012  -0.00004  -1.03040
   D54        1.06084  -0.00000   0.00008  -0.00014  -0.00006   1.06078
         Item               Value     Threshold  Converged?
 Maximum Force            0.000120     0.000450     YES
 RMS     Force            0.000026     0.000300     YES
 Maximum Displacement     0.003629     0.001800     NO 
 RMS     Displacement     0.000889     0.001200     YES
 Predicted change in Energy=-3.251923D-07
 GradGradGradGradGradGradGradGradGradGradGradGradGradGradGradGradGradGrad

                          Input orientation:                          
 ---------------------------------------------------------------------
 Center     Atomic      Atomic             Coordinates (Angstroms)
 Number     Number       Type             X           Y           Z
 ---------------------------------------------------------------------
      1          7           0       -3.439992    1.242754    0.962610
      2          6           0       -4.535365    0.420065    1.453737
      3          6           0       -2.340757    0.700929    0.448259
      4          8           0       -2.150337   -0.520793    0.397688
      5          6           0       -1.327892    1.673801   -0.132335
      6          7           0       -0.019641    1.051962   -0.044723
      7          6           0        1.103007    1.757547   -0.066852
      8          6           0       -1.699478    1.997832   -1.581172
      9          6           0        2.383555    0.900371    0.001262
     10          8           0        1.171847    2.985129   -0.127887
     11          6           0        3.672253    1.647552    0.021357
     12          8           0        2.285195   -0.305823    0.032257
     13          6           0        4.884544    0.736296    0.092563
     14          1           0       -3.528191    2.246893    0.966677
     15          1           0       -4.200125   -0.205903    2.278522
     16          1           0       -5.324535    1.078414    1.801667
     17          1           0       -4.920961   -0.216021    0.658843
     18          1           0       -1.313404    2.587307    0.459721
     19          1           0        0.036188    0.041987   -0.013804
     20          1           0       -2.658865    2.512318   -1.616363
     21          1           0       -0.938077    2.644706   -2.013849
     22          1           0       -1.762566    1.079301   -2.164407
     23          1           0        3.686567    2.281072   -0.869753
     24          1           0        3.626845    2.338175    0.868021
     25          1           0        4.922106    0.070852   -0.769221
     26          1           0        5.795307    1.332421    0.105890
     27          1           0        4.860274    0.125958    0.994690
 ---------------------------------------------------------------------
                    Distance matrix (angstroms):
                    1          2          3          4          5
     1  N    0.000000
     2  C    1.455289   0.000000
     3  C    1.329078   2.430263   0.000000
     4  O    2.256645   2.772872   1.237507   0.000000
     5  C    2.417782   3.791485   1.519692   2.402828   0.000000
     6  N    3.570703   4.799629   2.398715   2.684986   1.451165
     7  C    4.686538   5.991017   3.638858   3.998859   2.433222
     8  C    3.173383   4.443229   2.492345   3.234600   1.530426
     9  C    5.912285   7.086031   4.749601   4.767917   3.793531
    10  O    5.049170   6.453942   4.229409   4.858459   2.822818
    11  C    7.185670   8.421606   6.102019   6.224621   5.002576
    12  O    6.003450   7.004824   4.752477   4.455748   4.123154
    13  C    8.385188   9.522998   7.234138   7.152826   6.286800
    14  H    1.008014   2.142179   2.017117   3.143616   2.525386
    15  H    2.099532   1.088344   2.762147   2.799701   4.194668
    16  H    2.069427   1.085019   3.298051   3.821539   4.479733
    17  H    2.100849   1.088645   2.746378   2.799544   4.136125
    18  H    2.565754   4.008246   2.148024   3.219409   1.088685
    19  H    3.805135   4.816194   2.509497   2.294981   2.130160
    20  H    2.978767   4.162246   2.764957   3.676244   2.162624
    21  H    4.133323   5.469339   3.436242   4.159985   2.152838
    22  H    3.552282   4.605863   2.702497   3.045488   2.161409
    23  H    7.431251   8.744262   6.368881   6.597446   5.104641
    24  H    7.151858   8.404992   6.202343   6.463029   5.098189
    25  H    8.619586   9.721484   7.391105   7.192438   6.483637
    26  H    9.275384  10.458101   8.167713   8.164116   7.135352
    27  H    8.375122   9.411443   7.244586   7.065646   6.477608
                    6          7          8          9         10
     6  N    0.000000
     7  C    1.326152   0.000000
     8  C    2.465198   3.194499   0.000000
     9  C    2.408411   1.542463   4.514386   0.000000
    10  O    2.272377   1.231025   3.366200   2.414773   0.000000
    11  C    3.740211   2.573113   5.616609   1.489775   2.839615
    12  O    2.676149   2.380102   4.877254   1.210594   3.477866
    13  C    4.916251   3.920254   6.909574   2.508028   4.346258
    14  H    3.841967   4.770286   3.146070   6.139535   4.881949
    15  H    4.945314   6.122019   5.099698   7.053694   6.695639
    16  H    5.617095   6.727992   5.042813   7.917563   7.040009
    17  H    5.111333   6.380422   4.505193   7.418537   6.927382
    18  H    2.070162   2.608606   2.159116   4.089431   2.584574
    19  H    1.011989   2.020906   3.048690   2.499436   3.156710
    20  H    3.401205   4.137915   1.089200   5.535439   4.136843
    21  H    2.694034   2.957004   1.088755   4.258711   2.850355
    22  H    2.744375   3.615420   1.089882   4.681074   4.048503
    23  H    3.990910   2.755633   5.440204   2.088742   2.714751
    24  H    3.972947   2.753339   5.872317   2.089096   2.727159
    25  H    5.090023   4.233648   6.943910   2.779566   4.792573
    26  H    5.823655   4.714685   7.711080   3.440591   4.915533
    27  H    5.074587   4.231549   7.291730   2.778624   4.799951
                   11         12         13         14         15
    11  C    0.000000
    12  O    2.395772   0.000000
    13  C    1.518258   2.801118   0.000000
    14  H    7.286922   6.417551   8.591862   0.000000
    15  H    8.396692   6.864041   9.391345   2.861581   0.000000
    16  H    9.188886   7.934414  10.356804   2.299871   1.772332
    17  H    8.816044   7.233903   9.867903   2.846141   1.772870
    18  H    5.092356   4.637116   6.478859   2.297426   4.409446
    19  H    3.974927   2.276209   4.898972   4.304388   4.823127
    20  H    6.596439   5.924829   7.935849   2.738298   4.993430
    21  H    5.137269   4.825107   6.479345   3.968688   6.098474
    22  H    5.885384   4.809186   7.028203   3.779470   5.228103
    23  H    1.093449   3.077254   2.178884   7.444889   8.848536
    24  H    1.093554   3.080463   2.179256   7.156298   8.350048
    25  H    2.161742   2.781645   1.089448   8.896966   9.621872
    26  H    2.147978   3.874293   1.088592   9.407700  10.343859
    27  H    2.161948   2.782758   1.089466   8.652485   9.156920
                   16         17         18         19         20
    16  H    0.000000
    17  H    1.773268   0.000000
    18  H    4.490740   4.573048   0.000000
    19  H    5.753909   5.009226   2.919637   0.000000
    20  H    4.565611   4.211588   2.475079   3.991747   0.000000
    21  H    6.021001   5.584837   2.502542   3.423963   1.771054
    22  H    5.330794   4.429905   3.059719   2.989420   1.776863
    23  H    9.475380   9.091843   5.182759   4.367083   6.393388
    24  H    9.087679   8.923714   4.963350   4.352346   6.761113
    25  H   10.612177   9.950258   6.835527   4.944055   8.009340
    26  H   11.251269  10.841671   7.227289   5.903134   8.708119
    27  H   10.261029   9.792972   6.667738   4.929089   8.309619
                   21         22         23         24         25
    21  H    0.000000
    22  H    1.775653   0.000000
    23  H    4.777919   5.728301   0.000000
    24  H    5.407185   6.310795   1.739738   0.000000
    25  H    6.520396   6.902778   2.534115   3.082047   0.000000
    26  H    7.180101   7.895553   2.509702   2.508906   1.766311
    27  H    7.001163   7.399376   3.081924   2.536000   1.765855
                   26         27
    26  H    0.000000
    27  H    1.766297   0.000000
 Stoichiometry    C8H14N2O3
 Framework group  C1[X(C8H14N2O3)]
 Deg. of freedom    75
 Full point group                 C1      NOp   1
 Largest Abelian subgroup         C1      NOp   1
 Largest concise Abelian subgroup C1      NOp   1
                         Standard orientation:                         
 ---------------------------------------------------------------------
 Center     Atomic      Atomic             Coordinates (Angstroms)
 Number     Number       Type             X           Y           Z
 ---------------------------------------------------------------------
      1          7           0        3.468177    0.038745   -0.608316
      2          6           0        4.641041   -0.822686   -0.622184
      3          6           0        2.351758   -0.317835    0.018506
      4          8           0        2.213567   -1.410868    0.582071
      5          6           0        1.245748    0.723811    0.052869
      6          7           0       -0.018815    0.020061    0.160097
      7          6           0       -1.169752    0.572796   -0.198381
      8          6           0        1.465516    1.666936    1.237951
      9          6           0       -2.397807   -0.332066    0.030306
     10          8           0       -1.300088    1.697812   -0.680847
     11          6           0       -3.711868    0.226442   -0.394831
     12          8           0       -2.241889   -1.422550    0.532375
     13          6           0       -4.869272   -0.722834   -0.141064
     14          1           0        3.510323    0.947622   -1.042204
     15          1           0        4.413101   -1.766896   -1.113105
     16          1           0        5.428233   -0.315195   -1.169951
     17          1           0        4.979608   -1.022659    0.392966
     18          1           0        1.244690    1.290630   -0.876620
     19          1           0       -0.025240   -0.906427    0.567159
     20          1           0        2.392896    2.223164    1.107825
     21          1           0        0.638312    2.372363    1.297058
     22          1           0        1.515962    1.095777    2.164815
     23          1           0       -3.838118    1.177376    0.129970
     24          1           0       -3.619432    0.488439   -1.452505
     25          1           0       -4.956465   -0.955053    0.919770
     26          1           0       -5.801155   -0.266502   -0.470284
     27          1           0       -4.733153   -1.656823   -0.685189
 ---------------------------------------------------------------------
 Rotational constants (GHZ):           1.9345045           0.3304439           0.3041558
 Standard basis: 6-311+G(d,p) (5D, 7F)
 There are   383 symmetry adapted cartesian basis functions of A   symmetry.
 There are   370 symmetry adapted basis functions of A   symmetry.
   370 basis functions,   580 primitive gaussians,   383 cartesian basis functions
    50 alpha electrons       50 beta electrons
       nuclear repulsion energy       812.0898753893 Hartrees.
 NAtoms=   27 NActive=   27 NUniq=   27 SFac= 1.00D+00 NAtFMM=   60 NAOKFM=F Big=F
 Integral buffers will be    131072 words long.
 Raffenetti 2 integral format.
 Two-electron integral symmetry is turned on.
 ------------------------------------------------------------------------------
 Polarizable Continuum Model (PCM)
 =================================
 Model                : PCM.
 Atomic radii         : SMD-Coulomb.
 Polarization charges : Total charges.
 Charge compensation  : None.
 Solution method      : On-the-fly selection.
 Cavity type          : VdW (van der Waals Surface) (Alpha=1.000).
 Cavity algorithm     : GePol (No added spheres)
                        Default sphere list used, NSphG=   27.
                        Lebedev-Laikov grids with approx.  5.0 points / Ang**2.
                        Smoothing algorithm: York/Karplus (Gamma=1.0000).
                        Polarization charges: spherical gaussians, with
                                              point-specific exponents (IZeta= 3).
                        Self-potential: point-specific (ISelfS= 7).
                        Self-field    : sphere-specific E.n sum rule (ISelfD= 2).
 1st derivatives      : Analytical E(r).r(x)/FMM algorithm (CHGder, D1EAlg=3).
                        Cavity 1st derivative terms included.
 Solvent              : Water, Eps=  78.355300 Eps(inf)=   1.777849
 ------------------------------------------------------------------------------
 ------------------------------------------------------------------------------
 Atomic radii for non-electrostatic terms: SMD-CDS.
 ------------------------------------------------------------------------------
 Nuclear repulsion after PCM non-electrostatic terms =      812.1001994247 Hartrees.
 One-electron integrals computed using PRISM.
 NBasis=   370 RedAO= T EigKep=  5.32D-06  NBF=   370
 NBsUse=   370 1.00D-06 EigRej= -1.00D+00 NBFU=   370
 Initial guess from the checkpoint file:  "2KT_3D.chk"
 B after Tr=     0.000000    0.000000   -0.000000
         Rot=    1.000000   -0.000134    0.000001   -0.000023 Ang=  -0.02 deg.
 Requested convergence on RMS density matrix=1.00D-08 within 128 cycles.
 Requested convergence on MAX density matrix=1.00D-06.
 Requested convergence on             energy=1.00D-06.
 No special actions if energy rises.
 Inv3:  Mode=1 IEnd=    11442627.
 Iteration    1 A*A^-1 deviation from unit magnitude is 6.66D-15 for    239.
 Iteration    1 A*A^-1 deviation from orthogonality  is 4.79D-15 for   1790    218.
 Iteration    1 A^-1*A deviation from unit magnitude is 5.55D-15 for    239.
 Iteration    1 A^-1*A deviation from orthogonality  is 3.79D-14 for   1305   1293.
 Error on total polarization charges =  0.05801
 SCF Done:  E(RM052X) =  -648.621291872     A.U. after    8 cycles
            NFock=  8  Conv=0.91D-08     -V/T= 2.0038
 SMD-CDS (non-electrostatic) energy       (kcal/mol) =       6.48
 (included in total energy above)
 D1PCM: PCM CHGder 1st derivatives, ID1Alg=3 FixD1E=F DoIter=F DoCFld=F I1PDM=0.
 Calling FoFJK, ICntrl=      2127 FMM=F ISym2X=0 I1Cent= 0 IOpClX= 0 NMat=1 NMatS=1 NMatT=0.
 ***** Axes restored to original set *****
 -------------------------------------------------------------------
 Center     Atomic                   Forces (Hartrees/Bohr)
 Number     Number              X              Y              Z
 -------------------------------------------------------------------
      1        7           0.000030019   -0.000014263   -0.000025400
      2        6          -0.000047493    0.000035873   -0.000041804
      3        6           0.000067774    0.000053447    0.000088574
      4        8          -0.000016265   -0.000057014   -0.000077107
      5        6           0.000054050    0.000011347    0.000041859
      6        7          -0.000027660    0.000032962    0.000021516
      7        6          -0.000012705   -0.000015081    0.000000204
      8        6          -0.000039561   -0.000003128   -0.000005883
      9        6          -0.000001840    0.000012115   -0.000001353
     10        8           0.000011159    0.000008558   -0.000006404
     11        6          -0.000001460   -0.000001386    0.000004632
     12        8          -0.000003518   -0.000015679   -0.000005460
     13        6           0.000002864   -0.000007542   -0.000002330
     14        1           0.000009503    0.000013839    0.000008675
     15        1           0.000003475   -0.000002521    0.000008469
     16        1           0.000004101    0.000000092    0.000009793
     17        1           0.000009126   -0.000006243    0.000008638
     18        1          -0.000018504    0.000017325   -0.000008251
     19        1          -0.000036529   -0.000019907   -0.000007698
     20        1           0.000005008    0.000000122    0.000014111
     21        1           0.000005526   -0.000006135   -0.000002382
     22        1          -0.000001547   -0.000009100   -0.000006345
     23        1           0.000002906   -0.000006290   -0.000004662
     24        1           0.000004302   -0.000006996   -0.000003999
     25        1          -0.000003191   -0.000004173   -0.000001159
     26        1           0.000001721   -0.000006039   -0.000003444
     27        1          -0.000001261   -0.000004182   -0.000002788
 -------------------------------------------------------------------
 Cartesian Forces:  Max     0.000088574 RMS     0.000023734

 GradGradGradGradGradGradGradGradGradGradGradGradGradGradGradGradGradGrad
 Berny optimization.
 Using GEDIIS/GDIIS optimizer.
 FormGI is forming the generalized inverse of G from B-inverse, IUseBI=4.
 Internal  Forces:  Max     0.000069393 RMS     0.000018956
 Search for a local minimum.
 Step number  19 out of a maximum of  135
 All quantities printed in internal units (Hartrees-Bohrs-Radians)
 Mixed Optimization -- En-DIIS/RFO-DIIS
 Swapping is turned off.
 Update second derivatives using D2CorX and points    7    8    9   10   11
                                                     12   13   14   15   16
                                                     17   18   19
 DE= -4.08D-07 DEPred=-3.25D-07 R= 1.25D+00
 Trust test= 1.25D+00 RLast= 6.23D-03 DXMaxT set to 1.62D-01
 ITU=  0 -1  1  1 -1  1 -1  1  0 -1  1  1 -1  1  1  0  1  1  0
     Eigenvalues ---    0.00111   0.00355   0.00369   0.00399   0.00565
     Eigenvalues ---    0.00680   0.00814   0.00965   0.01227   0.02380
     Eigenvalues ---    0.02403   0.03160   0.04179   0.04457   0.04784
     Eigenvalues ---    0.05023   0.05283   0.05402   0.05556   0.05661
     Eigenvalues ---    0.05725   0.05803   0.06610   0.07419   0.07667
     Eigenvalues ---    0.09081   0.13185   0.15124   0.15613   0.15846
     Eigenvalues ---    0.15999   0.16004   0.16007   0.16021   0.16072
     Eigenvalues ---    0.16130   0.16218   0.16514   0.17010   0.17880
     Eigenvalues ---    0.21003   0.22024   0.22193   0.24544   0.25072
     Eigenvalues ---    0.25383   0.26352   0.27449   0.29446   0.30051
     Eigenvalues ---    0.31746   0.32395   0.32958   0.34644   0.34777
     Eigenvalues ---    0.34806   0.34809   0.34814   0.34816   0.34820
     Eigenvalues ---    0.34821   0.34837   0.34883   0.34923   0.34969
     Eigenvalues ---    0.36347   0.36588   0.38062   0.53358   0.53692
     Eigenvalues ---    0.55907   0.57502   0.97922   0.98466   1.01495
 En-DIIS/RFO-DIIS/Sim-DIIS IScMMF=       -3 using points:    19   18   17   16   15   14   13   12   11   10
 RFO step:  Lambda=-1.19209503D-06.
 DIIS inversion failure, remove point  10.
 DIIS inversion failure, remove point   9.
 RFO-DIIS uses    8 points instead of   10
 DidBck=F Rises=F RFO-DIIS coefs:    1.04854    0.23324   -0.31796    0.14349   -0.24049
                  RFO-DIIS coefs:    0.10636    0.02431    0.00249    0.00000    0.00000
 Iteration  1 RMS(Cart)=  0.00385512 RMS(Int)=  0.00001063
 Iteration  2 RMS(Cart)=  0.00001260 RMS(Int)=  0.00000133
 Iteration  3 RMS(Cart)=  0.00000000 RMS(Int)=  0.00000133
 Variable       Old X    -DE/DX   Delta X   Delta X   Delta X     New X
                                 (Linear)    (Quad)   (Total)
    R1        2.75010   0.00001   0.00005  -0.00002   0.00002   2.75012
    R2        2.51159  -0.00002  -0.00001  -0.00008  -0.00008   2.51151
    R3        1.90487   0.00001   0.00000   0.00002   0.00002   1.90490
    R4        2.05667   0.00001   0.00000   0.00002   0.00002   2.05669
    R5        2.05039  -0.00000  -0.00001  -0.00000  -0.00002   2.05037
    R6        2.05724  -0.00000   0.00001  -0.00001  -0.00000   2.05724
    R7        2.33855   0.00006   0.00005   0.00004   0.00009   2.33864
    R8        2.87180  -0.00005  -0.00028   0.00002  -0.00027   2.87154
    R9        2.74230  -0.00006  -0.00002  -0.00002  -0.00004   2.74227
   R10        2.89209   0.00001   0.00012  -0.00005   0.00007   2.89215
   R11        2.05732   0.00001  -0.00005  -0.00000  -0.00005   2.05726
   R12        2.50606   0.00000   0.00007  -0.00003   0.00004   2.50610
   R13        1.91238   0.00002  -0.00002   0.00005   0.00003   1.91241
   R14        2.91483  -0.00000  -0.00007   0.00006  -0.00001   2.91482
   R15        2.32630   0.00001  -0.00005   0.00003  -0.00002   2.32628
   R16        2.05829  -0.00001   0.00002  -0.00003  -0.00001   2.05828
   R17        2.05745  -0.00000  -0.00000   0.00001   0.00001   2.05746
   R18        2.05958   0.00002   0.00002   0.00001   0.00003   2.05960
   R19        2.81527   0.00001   0.00005  -0.00004   0.00001   2.81528
   R20        2.28769   0.00001  -0.00001   0.00001   0.00001   2.28770
   R21        2.86909  -0.00000   0.00001  -0.00002  -0.00000   2.86909
   R22        2.06632   0.00000   0.00000   0.00001   0.00001   2.06633
   R23        2.06652  -0.00000   0.00000  -0.00001  -0.00001   2.06651
   R24        2.05876  -0.00000  -0.00000  -0.00001  -0.00001   2.05875
   R25        2.05714   0.00000  -0.00000   0.00001   0.00000   2.05714
   R26        2.05879  -0.00000   0.00000  -0.00000  -0.00000   2.05879
    A1        2.12077   0.00003   0.00005   0.00002   0.00007   2.12084
    A2        2.08969  -0.00001   0.00003  -0.00000   0.00003   2.08972
    A3        2.07149  -0.00002  -0.00016  -0.00002  -0.00018   2.07131
    A4        1.92735  -0.00001  -0.00009   0.00006  -0.00003   1.92732
    A5        1.88879   0.00001   0.00008  -0.00002   0.00006   1.88885
    A6        1.92889   0.00001  -0.00003  -0.00003  -0.00005   1.92884
    A7        1.90711  -0.00000  -0.00000  -0.00004  -0.00004   1.90707
    A8        1.90328  -0.00001  -0.00003  -0.00002  -0.00005   1.90323
    A9        1.90821   0.00001   0.00008   0.00004   0.00012   1.90833
   A10        2.14784   0.00004   0.00019  -0.00003   0.00016   2.14800
   A11        2.02429  -0.00005   0.00017   0.00003   0.00020   2.02449
   A12        2.11045   0.00001  -0.00041   0.00001  -0.00041   2.11005
   A13        1.87913   0.00000  -0.00030   0.00009  -0.00021   1.87892
   A14        1.91282  -0.00007  -0.00090  -0.00012  -0.00102   1.91180
   A15        1.91587   0.00003   0.00074   0.00006   0.00080   1.91667
   A16        1.94633   0.00003   0.00000  -0.00005  -0.00004   1.94629
   A17        1.89097  -0.00000   0.00027   0.00003   0.00030   1.89127
   A18        1.91815   0.00001   0.00020  -0.00000   0.00020   1.91835
   A19        2.13433  -0.00000  -0.00013   0.00011  -0.00002   2.13431
   A20        2.07058  -0.00003  -0.00023  -0.00009  -0.00032   2.07026
   A21        2.07693   0.00003   0.00021  -0.00003   0.00018   2.07711
   A22        1.98930   0.00002   0.00008   0.00001   0.00009   1.98938
   A23        2.18797  -0.00000  -0.00005   0.00002  -0.00004   2.18793
   A24        2.10590  -0.00002  -0.00002  -0.00003  -0.00005   2.10585
   A25        1.92246  -0.00002  -0.00015  -0.00001  -0.00016   1.92230
   A26        1.90945   0.00001   0.00008  -0.00001   0.00007   1.90952
   A27        1.92008  -0.00000  -0.00001  -0.00006  -0.00007   1.92000
   A28        1.89917   0.00001   0.00011   0.00005   0.00015   1.89932
   A29        1.90690   0.00001   0.00003   0.00002   0.00005   1.90695
   A30        1.90556  -0.00000  -0.00006   0.00002  -0.00004   1.90552
   A31        2.02642  -0.00001  -0.00002  -0.00002  -0.00004   2.02638
   A32        2.07988   0.00001   0.00000   0.00002   0.00002   2.07990
   A33        2.17688   0.00001   0.00001   0.00001   0.00002   2.17690
   A34        1.97177   0.00001   0.00002   0.00002   0.00004   1.97181
   A35        1.86598  -0.00001   0.00001  -0.00006  -0.00004   1.86593
   A36        1.86635   0.00000   0.00003   0.00001   0.00005   1.86639
   A37        1.95574  -0.00000  -0.00003  -0.00000  -0.00003   1.95572
   A38        1.95616  -0.00001  -0.00002   0.00001  -0.00001   1.95615
   A39        1.83963   0.00000  -0.00002   0.00001  -0.00001   1.83962
   A40        1.93589  -0.00000   0.00000   0.00000   0.00000   1.93589
   A41        1.91765  -0.00000   0.00000  -0.00001  -0.00000   1.91764
   A42        1.93616  -0.00000  -0.00002   0.00001  -0.00001   1.93615
   A43        1.89159   0.00000   0.00001  -0.00001   0.00000   1.89160
   A44        1.88977   0.00000   0.00000   0.00001   0.00001   1.88978
   A45        1.89155   0.00000   0.00000  -0.00000   0.00000   1.89155
    D1        1.07740   0.00001   0.00059   0.00038   0.00097   1.07837
    D2       -3.11905   0.00000   0.00058   0.00036   0.00094  -3.11811
    D3       -1.03007   0.00002   0.00071   0.00038   0.00110  -1.02897
    D4       -2.11850  -0.00000  -0.00071   0.00020  -0.00050  -2.11900
    D5       -0.03176  -0.00001  -0.00072   0.00018  -0.00053  -0.03230
    D6        2.05722   0.00001  -0.00059   0.00021  -0.00038   2.05684
    D7       -0.04929   0.00001  -0.00089  -0.00019  -0.00108  -0.05037
    D8        3.05518  -0.00005  -0.00257   0.00015  -0.00242   3.05276
    D9       -3.13713   0.00002   0.00039  -0.00002   0.00037  -3.13676
   D10       -0.03266  -0.00004  -0.00129   0.00032  -0.00097  -0.03363
   D11        2.67245   0.00002  -0.00721  -0.00009  -0.00730   2.66515
   D12       -1.49077   0.00002  -0.00792  -0.00016  -0.00808  -1.49885
   D13        0.61748   0.00000  -0.00777  -0.00021  -0.00798   0.60950
   D14       -0.50540  -0.00003  -0.00884   0.00025  -0.00860  -0.51400
   D15        1.61456  -0.00004  -0.00955   0.00017  -0.00938   1.60518
   D16       -2.56038  -0.00005  -0.00940   0.00012  -0.00927  -2.56965
   D17       -2.76513  -0.00005  -0.00093  -0.00015  -0.00108  -2.76621
   D18        0.43265  -0.00004   0.00226   0.00001   0.00227   0.43491
   D19        1.41912   0.00002   0.00036  -0.00003   0.00033   1.41945
   D20       -1.66629   0.00003   0.00355   0.00014   0.00368  -1.66261
   D21       -0.69411  -0.00001  -0.00007  -0.00002  -0.00009  -0.69419
   D22        2.50367  -0.00000   0.00312   0.00015   0.00326   2.50693
   D23        1.11682   0.00001   0.00009   0.00006   0.00015   1.11697
   D24       -3.07952   0.00001   0.00018   0.00010   0.00028  -3.07924
   D25       -0.98628   0.00001   0.00016   0.00008   0.00024  -0.98605
   D26       -3.08736  -0.00002  -0.00085   0.00006  -0.00080  -3.08815
   D27       -1.00052  -0.00001  -0.00076   0.00010  -0.00066  -1.00118
   D28        1.09272  -0.00001  -0.00079   0.00008  -0.00071   1.09201
   D29       -0.99005   0.00001  -0.00038   0.00007  -0.00032  -0.99037
   D30        1.09679   0.00001  -0.00029   0.00011  -0.00019   1.09661
   D31       -3.09315   0.00001  -0.00032   0.00009  -0.00023  -3.09339
   D32       -3.11532  -0.00000   0.00108   0.00018   0.00126  -3.11406
   D33        0.03308  -0.00000   0.00112   0.00021   0.00134   0.03442
   D34       -0.03010  -0.00001  -0.00213   0.00001  -0.00212  -0.03222
   D35        3.11830  -0.00001  -0.00208   0.00004  -0.00204   3.11626
   D36       -3.11027  -0.00001   0.00025   0.00022   0.00046  -3.10980
   D37        0.03327  -0.00001   0.00045   0.00012   0.00057   0.03384
   D38        0.02487  -0.00000   0.00020   0.00018   0.00039   0.02526
   D39       -3.11478  -0.00000   0.00041   0.00008   0.00049  -3.11428
   D40        3.13893  -0.00000  -0.00023  -0.00018  -0.00041   3.13853
   D41       -0.98485  -0.00000  -0.00025  -0.00020  -0.00045  -0.98530
   D42        0.97874  -0.00000  -0.00024  -0.00021  -0.00046   0.97829
   D43       -0.00472  -0.00000  -0.00045  -0.00007  -0.00052  -0.00524
   D44        2.15468  -0.00000  -0.00046  -0.00010  -0.00056   2.15412
   D45       -2.16492  -0.00000  -0.00046  -0.00011  -0.00057  -2.16548
   D46        1.05183  -0.00000  -0.00002  -0.00014  -0.00016   1.05167
   D47       -3.14029  -0.00000  -0.00000  -0.00015  -0.00016  -3.14045
   D48       -1.04912  -0.00000  -0.00001  -0.00015  -0.00016  -1.04928
   D49       -1.05728  -0.00000  -0.00003  -0.00008  -0.00011  -1.05739
   D50        1.03378  -0.00000  -0.00001  -0.00009  -0.00010   1.03368
   D51        3.12496  -0.00000  -0.00002  -0.00010  -0.00011   3.12485
   D52       -3.12146   0.00000   0.00003  -0.00010  -0.00008  -3.12154
   D53       -1.03040   0.00000   0.00004  -0.00011  -0.00007  -1.03047
   D54        1.06078   0.00000   0.00003  -0.00011  -0.00008   1.06070
         Item               Value     Threshold  Converged?
 Maximum Force            0.000069     0.000450     YES
 RMS     Force            0.000019     0.000300     YES
 Maximum Displacement     0.018987     0.001800     NO 
 RMS     Displacement     0.003855     0.001200     NO 
 Predicted change in Energy=-5.869006D-07
 GradGradGradGradGradGradGradGradGradGradGradGradGradGradGradGradGradGrad

                          Input orientation:                          
 ---------------------------------------------------------------------
 Center     Atomic      Atomic             Coordinates (Angstroms)
 Number     Number       Type             X           Y           Z
 ---------------------------------------------------------------------
      1          7           0       -3.437511    1.243082    0.966841
      2          6           0       -4.534383    0.420844    1.455408
      3          6           0       -2.341489    0.701088    0.445968
      4          8           0       -2.154604   -0.520882    0.387641
      5          6           0       -1.328329    1.673941   -0.133774
      6          7           0       -0.020174    1.052181   -0.044505
      7          6           0        1.102516    1.757731   -0.066790
      8          6           0       -1.699092    1.995701   -1.583368
      9          6           0        2.383104    0.900638    0.001483
     10          8           0        1.171354    2.985295   -0.128001
     11          6           0        3.671719    1.647966    0.022020
     12          8           0        2.284850   -0.305576    0.032133
     13          6           0        4.884109    0.736901    0.093927
     14          1           0       -3.522759    2.247450    0.976626
     15          1           0       -4.199302   -0.211019    2.275763
     16          1           0       -5.320813    1.079471    1.808943
     17          1           0       -4.923478   -0.209403    0.657573
     18          1           0       -1.314542    2.588183    0.457108
     19          1           0        0.035440    0.042129   -0.015255
     20          1           0       -2.658818    2.509455   -1.619804
     21          1           0       -0.937792    2.642399   -2.016499
     22          1           0       -1.761178    1.076252   -2.165289
     23          1           0        3.686337    2.281283   -0.869238
     24          1           0        3.625885    2.338783    0.868493
     25          1           0        4.922066    0.071199   -0.767635
     26          1           0        5.794784    1.333162    0.107393
     27          1           0        4.859600    0.126847    0.996240
 ---------------------------------------------------------------------
                    Distance matrix (angstroms):
                    1          2          3          4          5
     1  N    0.000000
     2  C    1.455302   0.000000
     3  C    1.329033   2.430286   0.000000
     4  O    2.256744   2.773143   1.237554   0.000000
     5  C    2.417776   3.791377   1.519551   2.402468   0.000000
     6  N    3.568957   4.798584   2.398402   2.686460   1.451146
     7  C    4.684560   5.989907   3.638762   4.000927   2.433211
     8  C    3.176807   4.444458   2.491364   3.228863   1.530462
     9  C    5.910054   7.084894   4.749649   4.770810   3.793550
    10  O    5.047338   6.452832   4.229315   4.860161   2.822782
    11  C    7.183159   8.420247   6.102048   6.227650   5.002543
    12  O    6.001452   7.003952   4.752646   4.458867   4.123236
    13  C    8.382575   9.521635   7.234258   7.156240   6.286834
    14  H    1.008027   2.142220   2.016986   3.143631   2.525357
    15  H    2.099526   1.088353   2.762527   2.800323   4.195405
    16  H    2.069476   1.085011   3.298067   3.821794   4.479673
    17  H    2.100823   1.088644   2.745985   2.799382   4.135010
    18  H    2.564395   4.007660   2.148458   3.221307   1.088656
    19  H    3.803707   4.815554   2.509332   2.296867   2.129958
    20  H    2.983421   4.163769   2.763748   3.669743   2.162538
    21  H    4.136061   5.470367   3.435520   4.155342   2.152924
    22  H    3.556426   4.607567   2.701142   3.036951   2.161398
    23  H    7.429553   8.743309   6.368789   6.599126   5.104571
    24  H    7.148552   8.403151   6.202429   6.467068   5.098117
    25  H    8.617670   9.720525   7.391132   7.194754   6.483672
    26  H    9.272649  10.456632   8.167808   8.167545   7.135336
    27  H    8.371911   9.409792   7.244876   7.070290   6.477723
                    6          7          8          9         10
     6  N    0.000000
     7  C    1.326172   0.000000
     8  C    2.465176   3.194627   0.000000
     9  C    2.408490   1.542457   4.513893   0.000000
    10  O    2.272365   1.231016   3.367024   2.414725   0.000000
    11  C    3.740249   2.573080   5.616387   1.489782   2.839504
    12  O    2.676287   2.380112   4.876218   1.210598   3.477837
    13  C    4.916357   3.920251   6.909156   2.508064   4.346157
    14  H    3.839203   4.766730   3.153206   6.135473   4.878454
    15  H    4.944130   6.121503   5.100347   7.052389   6.696152
    16  H    5.615406   6.725888   5.046198   7.915126   7.037908
    17  H    5.111447   6.380197   4.503438   7.419486   6.926052
    18  H    2.070340   2.608887   2.159272   4.089986   2.584517
    19  H    1.012004   2.021038   3.046969   2.499769   3.156777
    20  H    3.401126   4.138185   1.089195   5.535145   4.137888
    21  H    2.694360   2.957509   1.088760   4.258442   2.851754
    22  H    2.743974   3.615087   1.089896   4.679829   4.049041
    23  H    3.991128   2.755750   5.440072   2.088720   2.714812
    24  H    3.972740   2.753138   5.872368   2.089133   2.726848
    25  H    5.090283   4.233737   6.943260   2.779540   4.792591
    26  H    5.823724   4.714655   7.710759   3.440618   4.915389
    27  H    5.074602   4.231488   7.291325   2.778728   4.799771
                   11         12         13         14         15
    11  C    0.000000
    12  O    2.395796   0.000000
    13  C    1.518255   2.801201   0.000000
    14  H    7.282251   6.413917   8.586988   0.000000
    15  H    8.395723   6.861999   9.389745   2.861736   0.000000
    16  H    9.185963   7.932308  10.353698   2.299983   1.772307
    17  H    8.816528   7.236049   9.869243   2.846039   1.772843
    18  H    5.092751   4.637895   6.479385   2.293953   4.411901
    19  H    3.975252   2.276618   4.899411   4.302098   4.821398
    20  H    6.596473   5.923947   7.935652   2.748907   4.994948
    21  H    5.137319   4.824196   6.479147   3.974524   6.099422
    22  H    5.884517   4.807124   7.027023   3.787678   5.227280
    23  H    1.093455   3.077089   2.178867   7.441735   8.847932
    24  H    1.093548   3.080668   2.179245   7.150046   8.349578
    25  H    2.161739   2.781456   1.089444   8.893458   9.619837
    26  H    2.147974   3.874373   1.088594   9.402558  10.342537
    27  H    2.161936   2.783133   1.089465   8.646461   9.155055
                   16         17         18         19         20
    16  H    0.000000
    17  H    1.773338   0.000000
    18  H    4.489307   4.570677   0.000000
    19  H    5.752671   5.010671   2.920269   0.000000
    20  H    4.570271   4.208007   2.475245   3.990150   0.000000
    21  H    6.023921   5.582932   2.502721   3.422507   1.771150
    22  H    5.335310   4.429627   3.059802   2.986618   1.776903
    23  H    9.473423   9.091951   5.182873   4.367167   6.393466
    24  H    9.083706   8.923528   4.963795   4.352807   6.761527
    25  H   10.609992   9.952119   6.835970   4.944293   8.008813
    26  H   11.247938  10.842662   7.227717   5.903546   8.708057
    27  H   10.257133   9.794711   6.668498   4.929789   8.309459
                   21         22         23         24         25
    21  H    0.000000
    22  H    1.775646   0.000000
    23  H    4.777989   5.727762   0.000000
    24  H    5.407634   6.310171   1.739732   0.000000
    25  H    6.519866   6.901399   2.534131   3.082035   0.000000
    26  H    7.180013   7.894532   2.509639   2.508918   1.766313
    27  H    7.001024   7.398062   3.081906   2.535948   1.765857
                   26         27
    26  H    0.000000
    27  H    1.766300   0.000000
 Stoichiometry    C8H14N2O3
 Framework group  C1[X(C8H14N2O3)]
 Deg. of freedom    75
 Full point group                 C1      NOp   1
 Largest Abelian subgroup         C1      NOp   1
 Largest concise Abelian subgroup C1      NOp   1
                         Standard orientation:                         
 ---------------------------------------------------------------------
 Center     Atomic      Atomic             Coordinates (Angstroms)
 Number     Number       Type             X           Y           Z
 ---------------------------------------------------------------------
      1          7           0        3.465700    0.037011   -0.613556
      2          6           0        4.639821   -0.822753   -0.625737
      3          6           0        2.352009   -0.316912    0.019501
      4          8           0        2.216769   -1.406750    0.590029
      5          6           0        1.245759    0.724280    0.053652
      6          7           0       -0.018514    0.019823    0.159369
      7          6           0       -1.169593    0.572673   -0.198549
      8          6           0        1.464939    1.665226    1.240622
      9          6           0       -2.397603   -0.332302    0.029887
     10          8           0       -1.300071    1.697907   -0.680446
     11          6           0       -3.711647    0.226256   -0.395264
     12          8           0       -2.241690   -1.422829    0.531872
     13          6           0       -4.869014   -0.723279   -0.142315
     14          1           0        3.505320    0.943550   -1.052572
     15          1           0        4.411833   -1.770197   -1.110384
     16          1           0        5.424674   -0.317427   -1.178820
     17          1           0        4.981528   -1.016257    0.389614
     18          1           0        1.245059    1.292636   -0.874865
     19          1           0       -0.024768   -0.906140    0.567666
     20          1           0        2.392531    2.221432    1.111962
     21          1           0        0.637791    2.370651    1.300616
     22          1           0        1.514750    1.092286    2.166436
     23          1           0       -3.838134    1.176865    0.130082
     24          1           0       -3.619026    0.488904   -1.452754
     25          1           0       -4.956355   -0.956218    0.918345
     26          1           0       -5.800880   -0.266796   -0.471380
     27          1           0       -4.732727   -1.656885   -0.687055
 ---------------------------------------------------------------------
 Rotational constants (GHZ):           1.9332681           0.3304229           0.3042599
 Standard basis: 6-311+G(d,p) (5D, 7F)
 There are   383 symmetry adapted cartesian basis functions of A   symmetry.
 There are   370 symmetry adapted basis functions of A   symmetry.
   370 basis functions,   580 primitive gaussians,   383 cartesian basis functions
    50 alpha electrons       50 beta electrons
       nuclear repulsion energy       812.0946216217 Hartrees.
 NAtoms=   27 NActive=   27 NUniq=   27 SFac= 1.00D+00 NAtFMM=   60 NAOKFM=F Big=F
 Integral buffers will be    131072 words long.
 Raffenetti 2 integral format.
 Two-electron integral symmetry is turned on.
 ------------------------------------------------------------------------------
 Polarizable Continuum Model (PCM)
 =================================
 Model                : PCM.
 Atomic radii         : SMD-Coulomb.
 Polarization charges : Total charges.
 Charge compensation  : None.
 Solution method      : On-the-fly selection.
 Cavity type          : VdW (van der Waals Surface) (Alpha=1.000).
 Cavity algorithm     : GePol (No added spheres)
                        Default sphere list used, NSphG=   27.
                        Lebedev-Laikov grids with approx.  5.0 points / Ang**2.
                        Smoothing algorithm: York/Karplus (Gamma=1.0000).
                        Polarization charges: spherical gaussians, with
                                              point-specific exponents (IZeta= 3).
                        Self-potential: point-specific (ISelfS= 7).
                        Self-field    : sphere-specific E.n sum rule (ISelfD= 2).
 1st derivatives      : Analytical E(r).r(x)/FMM algorithm (CHGder, D1EAlg=3).
                        Cavity 1st derivative terms included.
 Solvent              : Water, Eps=  78.355300 Eps(inf)=   1.777849
 ------------------------------------------------------------------------------
 ------------------------------------------------------------------------------
 Atomic radii for non-electrostatic terms: SMD-CDS.
 ------------------------------------------------------------------------------
 Nuclear repulsion after PCM non-electrostatic terms =      812.1049433249 Hartrees.
 One-electron integrals computed using PRISM.
 NBasis=   370 RedAO= T EigKep=  5.33D-06  NBF=   370
 NBsUse=   370 1.00D-06 EigRej= -1.00D+00 NBFU=   370
 Initial guess from the checkpoint file:  "2KT_3D.chk"
 B after Tr=     0.000000   -0.000000    0.000000
         Rot=    1.000000    0.000077   -0.000038   -0.000050 Ang=   0.01 deg.
 Requested convergence on RMS density matrix=1.00D-08 within 128 cycles.
 Requested convergence on MAX density matrix=1.00D-06.
 Requested convergence on             energy=1.00D-06.
 No special actions if energy rises.
 Inv3:  Mode=1 IEnd=    11419203.
 Iteration    1 A*A^-1 deviation from unit magnitude is 6.66D-15 for    226.
 Iteration    1 A*A^-1 deviation from orthogonality  is 4.81D-15 for   1933    580.
 Iteration    1 A^-1*A deviation from unit magnitude is 5.33D-15 for    226.
 Iteration    1 A^-1*A deviation from orthogonality  is 2.45D-14 for   1304   1292.
 Error on total polarization charges =  0.05801
 SCF Done:  E(RM052X) =  -648.621292563     A.U. after   10 cycles
            NFock= 10  Conv=0.43D-08     -V/T= 2.0038
 SMD-CDS (non-electrostatic) energy       (kcal/mol) =       6.48
 (included in total energy above)
 D1PCM: PCM CHGder 1st derivatives, ID1Alg=3 FixD1E=F DoIter=F DoCFld=F I1PDM=0.
 Calling FoFJK, ICntrl=      2127 FMM=F ISym2X=0 I1Cent= 0 IOpClX= 0 NMat=1 NMatS=1 NMatT=0.
 ***** Axes restored to original set *****
 -------------------------------------------------------------------
 Center     Atomic                   Forces (Hartrees/Bohr)
 Number     Number              X              Y              Z
 -------------------------------------------------------------------
      1        7           0.000007153   -0.000002156   -0.000004847
      2        6          -0.000002697    0.000008375   -0.000009565
      3        6          -0.000009899    0.000025226    0.000002577
      4        8          -0.000001603   -0.000013269   -0.000004094
      5        6           0.000013936   -0.000007311    0.000010644
      6        7          -0.000000539    0.000018051    0.000003204
      7        6          -0.000002863   -0.000020618    0.000002137
      8        6          -0.000007859    0.000008221   -0.000003976
      9        6          -0.000000820    0.000002818   -0.000001955
     10        8           0.000003559    0.000008931   -0.000002773
     11        6          -0.000001361    0.000000023    0.000004314
     12        8          -0.000004262   -0.000007086   -0.000004596
     13        6           0.000000422   -0.000009104   -0.000003374
     14        1          -0.000002397    0.000003960    0.000007874
     15        1          -0.000001278    0.000003399    0.000004649
     16        1           0.000000011    0.000005538    0.000004291
     17        1           0.000002591    0.000002892    0.000005029
     18        1           0.000001636    0.000002729    0.000002213
     19        1           0.000001593   -0.000005668   -0.000001790
     20        1           0.000001658    0.000003258    0.000002737
     21        1           0.000001239    0.000001616    0.000000664
     22        1          -0.000000228    0.000002062    0.000001530
     23        1           0.000001604   -0.000006338   -0.000003483
     24        1           0.000002995   -0.000006885   -0.000002852
     25        1          -0.000001941   -0.000005542   -0.000002593
     26        1           0.000000275   -0.000006870   -0.000003149
     27        1          -0.000000923   -0.000006251   -0.000002815
 -------------------------------------------------------------------
 Cartesian Forces:  Max     0.000025226 RMS     0.000006422

 GradGradGradGradGradGradGradGradGradGradGradGradGradGradGradGradGradGrad
 Berny optimization.
 Using GEDIIS/GDIIS optimizer.
 FormGI is forming the generalized inverse of G from B-inverse, IUseBI=4.
 Internal  Forces:  Max     0.000015742 RMS     0.000003641
 Search for a local minimum.
 Step number  20 out of a maximum of  135
 All quantities printed in internal units (Hartrees-Bohrs-Radians)
 Mixed Optimization -- En-DIIS/RFO-DIIS
 Swapping is turned off.
 Update second derivatives using D2CorX and points    7    8    9   10   11
                                                     12   13   14   15   16
                                                     17   18   19   20
 DE= -6.91D-07 DEPred=-5.87D-07 R= 1.18D+00
 Trust test= 1.18D+00 RLast= 2.22D-02 DXMaxT set to 1.62D-01
 ITU=  0  0 -1  1  1 -1  1 -1  1  0 -1  1  1 -1  1  1  0  1  1  0
     Eigenvalues ---    0.00115   0.00355   0.00366   0.00410   0.00551
     Eigenvalues ---    0.00683   0.00806   0.00939   0.01195   0.02380
     Eigenvalues ---    0.02422   0.03177   0.04175   0.04375   0.04741
     Eigenvalues ---    0.05008   0.05305   0.05330   0.05549   0.05661
     Eigenvalues ---    0.05720   0.05787   0.06631   0.07413   0.07657
     Eigenvalues ---    0.09045   0.13182   0.14900   0.15146   0.15842
     Eigenvalues ---    0.15989   0.16003   0.16009   0.16017   0.16063
     Eigenvalues ---    0.16121   0.16163   0.16506   0.16982   0.17857
     Eigenvalues ---    0.20881   0.22023   0.22239   0.24549   0.25077
     Eigenvalues ---    0.25517   0.26327   0.27484   0.29467   0.30041
     Eigenvalues ---    0.31664   0.32330   0.32987   0.34658   0.34759
     Eigenvalues ---    0.34802   0.34807   0.34811   0.34815   0.34817
     Eigenvalues ---    0.34819   0.34841   0.34880   0.34892   0.34952
     Eigenvalues ---    0.36392   0.36675   0.38098   0.53223   0.53361
     Eigenvalues ---    0.55701   0.57561   0.97706   0.98219   1.01097
 En-DIIS/RFO-DIIS/Sim-DIIS IScMMF=       -3 using points:    20   19   18   17   16   15   14   13   12   11
 RFO step:  Lambda=-2.29317785D-08.
 DIIS inversion failure, remove point  10.
 DIIS inversion failure, remove point   9.
 DIIS inversion failure, remove point   8.
 DIIS inversion failure, remove point   7.
 RFO-DIIS uses    6 points instead of   10
 DidBck=F Rises=F RFO-DIIS coefs:    1.13049    0.07561   -0.34672    0.21468   -0.07935
                  RFO-DIIS coefs:    0.00530    0.00000    0.00000    0.00000    0.00000
 Iteration  1 RMS(Cart)=  0.00059431 RMS(Int)=  0.00000024
 Iteration  2 RMS(Cart)=  0.00000018 RMS(Int)=  0.00000021
 Variable       Old X    -DE/DX   Delta X   Delta X   Delta X     New X
                                 (Linear)    (Quad)   (Total)
    R1        2.75012  -0.00000  -0.00001   0.00000  -0.00001   2.75011
    R2        2.51151  -0.00001   0.00001  -0.00002  -0.00001   2.51149
    R3        1.90490   0.00000   0.00001  -0.00001   0.00000   1.90490
    R4        2.05669   0.00000   0.00000   0.00001   0.00001   2.05670
    R5        2.05037   0.00000  -0.00000   0.00001   0.00000   2.05038
    R6        2.05724  -0.00000  -0.00001  -0.00000  -0.00001   2.05723
    R7        2.33864   0.00002  -0.00001   0.00003   0.00002   2.33866
    R8        2.87154   0.00000   0.00005  -0.00005   0.00000   2.87154
    R9        2.74227  -0.00000   0.00002  -0.00005  -0.00003   2.74224
   R10        2.89215   0.00001   0.00001   0.00003   0.00003   2.89219
   R11        2.05726   0.00000  -0.00000   0.00001   0.00001   2.05727
   R12        2.50610  -0.00001   0.00003  -0.00005  -0.00002   2.50608
   R13        1.91241   0.00001   0.00001   0.00001   0.00002   1.91243
   R14        2.91482  -0.00000  -0.00008   0.00008   0.00001   2.91483
   R15        2.32628   0.00001  -0.00000   0.00001   0.00001   2.32629
   R16        2.05828  -0.00000  -0.00001   0.00000  -0.00001   2.05827
   R17        2.05746  -0.00000  -0.00001   0.00000  -0.00000   2.05746
   R18        2.05960   0.00000  -0.00000   0.00001   0.00001   2.05961
   R19        2.81528   0.00000   0.00002  -0.00003  -0.00000   2.81528
   R20        2.28770   0.00000   0.00001  -0.00001   0.00000   2.28770
   R21        2.86909   0.00000   0.00003  -0.00004  -0.00000   2.86908
   R22        2.06633   0.00000  -0.00001   0.00002   0.00000   2.06634
   R23        2.06651  -0.00000  -0.00001   0.00000  -0.00001   2.06650
   R24        2.05875  -0.00000  -0.00000   0.00000  -0.00000   2.05875
   R25        2.05714   0.00000  -0.00000   0.00001   0.00000   2.05715
   R26        2.05879  -0.00000  -0.00000   0.00000   0.00000   2.05879
    A1        2.12084  -0.00001  -0.00003   0.00003  -0.00001   2.12084
    A2        2.08972  -0.00000   0.00003  -0.00005  -0.00002   2.08970
    A3        2.07131   0.00001   0.00003   0.00002   0.00004   2.07135
    A4        1.92732  -0.00000   0.00000  -0.00001  -0.00001   1.92731
    A5        1.88885   0.00000  -0.00003   0.00004   0.00002   1.88887
    A6        1.92884   0.00000   0.00001  -0.00000   0.00001   1.92885
    A7        1.90707  -0.00000  -0.00000  -0.00002  -0.00003   1.90704
    A8        1.90323  -0.00000  -0.00000  -0.00002  -0.00002   1.90320
    A9        1.90833   0.00000   0.00001   0.00001   0.00003   1.90836
   A10        2.14800  -0.00001  -0.00006   0.00005  -0.00001   2.14799
   A11        2.02449   0.00001  -0.00002   0.00003   0.00001   2.02450
   A12        2.11005  -0.00001   0.00007  -0.00008  -0.00001   2.11004
   A13        1.87892   0.00000   0.00011  -0.00013  -0.00001   1.87890
   A14        1.91180  -0.00001  -0.00017   0.00006  -0.00010   1.91170
   A15        1.91667   0.00000   0.00001  -0.00000   0.00001   1.91669
   A16        1.94629   0.00000   0.00004  -0.00001   0.00003   1.94632
   A17        1.89127  -0.00000   0.00007  -0.00001   0.00006   1.89132
   A18        1.91835   0.00000  -0.00007   0.00009   0.00002   1.91836
   A19        2.13431   0.00001  -0.00005   0.00009   0.00005   2.13436
   A20        2.07026  -0.00000  -0.00002  -0.00001  -0.00003   2.07023
   A21        2.07711  -0.00001   0.00006  -0.00009  -0.00003   2.07708
   A22        1.98938  -0.00001  -0.00000  -0.00002  -0.00002   1.98936
   A23        2.18793   0.00000  -0.00001   0.00002   0.00001   2.18794
   A24        2.10585   0.00000   0.00001   0.00000   0.00001   2.10586
   A25        1.92230  -0.00000  -0.00006   0.00004  -0.00002   1.92228
   A26        1.90952   0.00000   0.00006  -0.00003   0.00004   1.90955
   A27        1.92000  -0.00000  -0.00005   0.00003  -0.00002   1.91998
   A28        1.89932   0.00000   0.00003  -0.00002   0.00001   1.89933
   A29        1.90695   0.00000   0.00001  -0.00001   0.00000   1.90696
   A30        1.90552   0.00000   0.00001  -0.00002  -0.00001   1.90551
   A31        2.02638   0.00000   0.00001  -0.00000   0.00001   2.02639
   A32        2.07990  -0.00000   0.00002  -0.00004  -0.00002   2.07988
   A33        2.17690   0.00000  -0.00003   0.00004   0.00001   2.17691
   A34        1.97181  -0.00000  -0.00003   0.00003   0.00000   1.97181
   A35        1.86593  -0.00000   0.00001  -0.00004  -0.00003   1.86591
   A36        1.86639   0.00000   0.00000   0.00002   0.00002   1.86641
   A37        1.95572  -0.00000  -0.00002   0.00001  -0.00001   1.95571
   A38        1.95615  -0.00000  -0.00002   0.00003   0.00001   1.95616
   A39        1.83962   0.00000   0.00006  -0.00006   0.00001   1.83963
   A40        1.93589   0.00000   0.00001  -0.00001   0.00000   1.93590
   A41        1.91764  -0.00000  -0.00003   0.00003  -0.00000   1.91764
   A42        1.93615  -0.00000   0.00000  -0.00001  -0.00001   1.93614
   A43        1.89160   0.00000   0.00001  -0.00001  -0.00000   1.89160
   A44        1.88978   0.00000   0.00001  -0.00000   0.00000   1.88978
   A45        1.89155   0.00000   0.00001  -0.00001   0.00000   1.89155
    D1        1.07837   0.00000  -0.00015   0.00029   0.00014   1.07851
    D2       -3.11811   0.00000  -0.00016   0.00028   0.00011  -3.11800
    D3       -1.02897   0.00000  -0.00016   0.00032   0.00016  -1.02881
    D4       -2.11900   0.00000   0.00022   0.00021   0.00043  -2.11857
    D5       -0.03230   0.00000   0.00020   0.00020   0.00040  -0.03190
    D6        2.05684   0.00000   0.00021   0.00024   0.00045   2.05729
    D7       -0.05037   0.00000   0.00021  -0.00001   0.00021  -0.05017
    D8        3.05276  -0.00000   0.00009  -0.00001   0.00008   3.05284
    D9       -3.13676   0.00000  -0.00015   0.00008  -0.00008  -3.13684
   D10       -0.03363  -0.00000  -0.00027   0.00007  -0.00021  -0.03383
   D11        2.66515   0.00000   0.00056   0.00003   0.00059   2.66574
   D12       -1.49885   0.00000   0.00059  -0.00003   0.00056  -1.49830
   D13        0.60950   0.00000   0.00040   0.00012   0.00052   0.61002
   D14       -0.51400   0.00000   0.00044   0.00002   0.00046  -0.51354
   D15        1.60518  -0.00000   0.00046  -0.00003   0.00043   1.60561
   D16       -2.56965  -0.00000   0.00028   0.00011   0.00039  -2.56926
   D17       -2.76621  -0.00001  -0.00063  -0.00005  -0.00068  -2.76689
   D18        0.43491  -0.00001  -0.00061   0.00007  -0.00054   0.43437
   D19        1.41945   0.00000  -0.00052  -0.00004  -0.00056   1.41889
   D20       -1.66261   0.00000  -0.00051   0.00008  -0.00042  -1.66303
   D21       -0.69419  -0.00000  -0.00051  -0.00013  -0.00064  -0.69483
   D22        2.50693   0.00000  -0.00050  -0.00001  -0.00050   2.50643
   D23        1.11697  -0.00000   0.00000   0.00014   0.00015   1.11712
   D24       -3.07924   0.00000   0.00004   0.00013   0.00017  -3.07907
   D25       -0.98605   0.00000   0.00006   0.00011   0.00017  -0.98588
   D26       -3.08815  -0.00000   0.00006   0.00002   0.00008  -3.08807
   D27       -1.00118  -0.00000   0.00010   0.00000   0.00010  -1.00108
   D28        1.09201  -0.00000   0.00012  -0.00002   0.00010   1.09211
   D29       -0.99037   0.00000   0.00013   0.00005   0.00018  -0.99018
   D30        1.09661   0.00000   0.00017   0.00004   0.00021   1.09681
   D31       -3.09339   0.00000   0.00019   0.00002   0.00020  -3.09318
   D32       -3.11406   0.00000  -0.00007   0.00015   0.00008  -3.11398
   D33        0.03442  -0.00000   0.00008  -0.00003   0.00005   0.03447
   D34       -0.03222  -0.00000  -0.00009   0.00003  -0.00006  -0.03228
   D35        3.11626  -0.00000   0.00007  -0.00015  -0.00008   3.11617
   D36       -3.10980  -0.00000   0.00022  -0.00014   0.00009  -3.10972
   D37        0.03384  -0.00000   0.00023  -0.00014   0.00010   0.03393
   D38        0.02526   0.00000   0.00008   0.00003   0.00011   0.02537
   D39       -3.11428   0.00000   0.00009   0.00003   0.00012  -3.11417
   D40        3.13853  -0.00000  -0.00013  -0.00009  -0.00022   3.13831
   D41       -0.98530  -0.00000  -0.00017  -0.00008  -0.00025  -0.98555
   D42        0.97829  -0.00000  -0.00009  -0.00016  -0.00025   0.97804
   D43       -0.00524  -0.00000  -0.00014  -0.00009  -0.00023  -0.00547
   D44        2.15412  -0.00000  -0.00018  -0.00008  -0.00026   2.15386
   D45       -2.16548  -0.00000  -0.00010  -0.00016  -0.00026  -2.16574
   D46        1.05167  -0.00000  -0.00005  -0.00007  -0.00012   1.05155
   D47       -3.14045  -0.00000  -0.00005  -0.00007  -0.00012  -3.14057
   D48       -1.04928  -0.00000  -0.00006  -0.00006  -0.00012  -1.04940
   D49       -1.05739   0.00000  -0.00003  -0.00005  -0.00008  -1.05747
   D50        1.03368   0.00000  -0.00003  -0.00005  -0.00008   1.03360
   D51        3.12485   0.00000  -0.00004  -0.00004  -0.00008   3.12476
   D52       -3.12154   0.00000  -0.00008  -0.00001  -0.00009  -3.12162
   D53       -1.03047   0.00000  -0.00009   0.00000  -0.00009  -1.03056
   D54        1.06070  -0.00000  -0.00010   0.00001  -0.00009   1.06061
         Item               Value     Threshold  Converged?
 Maximum Force            0.000016     0.000450     YES
 RMS     Force            0.000004     0.000300     YES
 Maximum Displacement     0.002185     0.001800     NO 
 RMS     Displacement     0.000594     0.001200     YES
 Predicted change in Energy=-1.112367D-08
 GradGradGradGradGradGradGradGradGradGradGradGradGradGradGradGradGradGrad

                          Input orientation:                          
 ---------------------------------------------------------------------
 Center     Atomic      Atomic             Coordinates (Angstroms)
 Number     Number       Type             X           Y           Z
 ---------------------------------------------------------------------
      1          7           0       -3.437812    1.242975    0.966529
      2          6           0       -4.534632    0.420537    1.454868
      3          6           0       -2.341415    0.701168    0.446271
      4          8           0       -2.154241   -0.520780    0.388184
      5          6           0       -1.328246    1.674152   -0.133238
      6          7           0       -0.020100    1.052413   -0.043968
      7          6           0        1.102626    1.757867   -0.066801
      8          6           0       -1.699014    1.996010   -1.582828
      9          6           0        2.383154    0.900682    0.001483
     10          8           0        1.171546    2.985406   -0.128521
     11          6           0        3.671847    1.647887    0.021534
     12          8           0        2.284781   -0.305514    0.032516
     13          6           0        4.884149    0.736736    0.093790
     14          1           0       -3.523297    2.247326    0.976235
     15          1           0       -4.199723   -0.210887    2.275637
     16          1           0       -5.321471    1.079010    1.807787
     17          1           0       -4.923098   -0.210177    0.657102
     18          1           0       -1.314573    2.588335    0.457749
     19          1           0        0.035480    0.042360   -0.014400
     20          1           0       -2.658707    2.509821   -1.619205
     21          1           0       -0.937690    2.642665   -2.015978
     22          1           0       -1.761178    1.076578   -2.164774
     23          1           0        3.686440    2.280725   -0.870067
     24          1           0        3.626169    2.339156    0.867641
     25          1           0        4.921900    0.070513   -0.767377
     26          1           0        5.794890    1.332908    0.106755
     27          1           0        4.859715    0.127227    0.996474
 ---------------------------------------------------------------------
                    Distance matrix (angstroms):
                    1          2          3          4          5
     1  N    0.000000
     2  C    1.455298   0.000000
     3  C    1.329026   2.430272   0.000000
     4  O    2.256738   2.773112   1.237564   0.000000
     5  C    2.417783   3.791377   1.519553   2.402473   0.000000
     6  N    3.569058   4.798622   2.398377   2.686308   1.451128
     7  C    4.684919   5.990209   3.638857   4.000804   2.433220
     8  C    3.176429   4.444146   2.491292   3.228986   1.530481
     9  C    5.910341   7.085099   4.749653   4.770540   3.793533
    10  O    5.047909   6.453382   4.229542   4.860163   2.822830
    11  C    7.183608   8.420637   6.102131   6.227427   5.002556
    12  O    6.001522   7.003900   4.752503   4.458448   4.123168
    13  C    8.382898   9.521866   7.234244   7.155903   6.286822
    14  H    1.008029   2.142205   2.017005   3.143648   2.525412
    15  H    2.099520   1.088358   2.762559   2.800448   4.195406
    16  H    2.069486   1.085013   3.298064   3.821773   4.479690
    17  H    2.100826   1.088640   2.745922   2.799171   4.135009
    18  H    2.564565   4.007789   2.148473   3.221254   1.088662
    19  H    3.803611   4.815360   2.509158   2.296537   2.129933
    20  H    2.982939   4.163427   2.763710   3.669964   2.162538
    21  H    4.135830   5.470156   3.435480   4.155403   2.152965
    22  H    3.555819   4.606978   2.700956   3.037046   2.161403
    23  H    7.430005   8.743663   6.368892   6.598878   5.104696
    24  H    7.149211   8.403844   6.202630   6.467013   5.098060
    25  H    8.617765   9.720436   7.390968   7.194215   6.483680
    26  H    9.273084  10.457000   8.167853   8.167255   7.135342
    27  H    8.372260   9.410096   7.244888   7.070043   6.477660
                    6          7          8          9         10
     6  N    0.000000
     7  C    1.326161   0.000000
     8  C    2.465201   3.194407   0.000000
     9  C    2.408468   1.542460   4.513744   0.000000
    10  O    2.272363   1.231020   3.366604   2.414740   0.000000
    11  C    3.740234   2.573090   5.616165   1.489780   2.839538
    12  O    2.676246   2.380105   4.876164   1.210599   3.477842
    13  C    4.916329   3.920257   6.909041   2.508061   4.346189
    14  H    3.839403   4.767248   3.152771   6.135940   4.879221
    15  H    4.944264   6.121921   5.100166   7.052775   6.696775
    16  H    5.615536   6.726363   5.045727   7.915541   7.038672
    17  H    5.111264   6.380172   4.503251   7.419244   6.926301
    18  H    2.070372   2.609154   2.159304   4.090176   2.584989
    19  H    1.012013   2.021018   3.047160   2.499709   3.156769
    20  H    3.401126   4.137997   1.089191   5.535009   4.137531
    21  H    2.694382   2.957203   1.088759   4.258246   2.851112
    22  H    2.744040   3.614833   1.089899   4.679647   4.048558
    23  H    3.991194   2.755850   5.439872   2.088701   2.714988
    24  H    3.972659   2.753061   5.871977   2.089144   2.726747
    25  H    5.090266   4.233772   6.943270   2.779488   4.792691
    26  H    5.823702   4.714663   7.710576   3.440616   4.915426
    27  H    5.074552   4.231460   7.291232   2.778775   4.799728
                   11         12         13         14         15
    11  C    0.000000
    12  O    2.395798   0.000000
    13  C    1.518254   2.801206   0.000000
    14  H    7.282916   6.414153   8.587533   0.000000
    15  H    8.396287   6.862167   9.390163   2.861610   0.000000
    16  H    9.186626   7.932437  10.354208   2.299972   1.772297
    17  H    8.816430   7.235518   9.868944   2.846157   1.772830
    18  H    5.093045   4.637945   6.479587   2.294248   4.411854
    19  H    3.975194   2.276526   4.899332   4.302107   4.821343
    20  H    6.596277   5.923881   7.935544   2.748222   4.994675
    21  H    5.137009   4.824149   6.479004   3.974291   6.099310
    22  H    5.884224   4.807083   7.026875   3.787037   5.226980
    23  H    1.093458   3.077002   2.178860   7.442463   8.848455
    24  H    1.093544   3.080753   2.179245   7.150880   8.350434
    25  H    2.161740   2.781299   1.089443   8.893820   9.619934
    26  H    2.147972   3.874378   1.088595   9.403231  10.343096
    27  H    2.161931   2.783301   1.089465   8.646971   9.155544
                   16         17         18         19         20
    16  H    0.000000
    17  H    1.773352   0.000000
    18  H    4.489532   4.570871   0.000000
    19  H    5.752559   5.010209   2.920198   0.000000
    20  H    4.569662   4.208020   2.475197   3.990290   0.000000
    21  H    6.023598   5.582790   2.502861   3.422713   1.771151
    22  H    5.334504   4.429048   3.059819   2.986921   1.776904
    23  H    9.474043   9.091809   5.183421   4.367145   6.393324
    24  H    9.084718   8.923755   4.963974   4.352736   6.761154
    25  H   10.610145   9.951478   6.836224   4.944175   8.008835
    26  H   11.248620  10.842475   7.227984   5.903473   8.707891
    27  H   10.257713   9.794511   6.668516   4.929737   8.309344
                   21         22         23         24         25
    21  H    0.000000
    22  H    1.775641   0.000000
    23  H    4.777729   5.727371   0.000000
    24  H    5.407049   6.309766   1.739735   0.000000
    25  H    6.519951   6.901334   2.534156   3.082036   0.000000
    26  H    7.179769   7.894283   2.509601   2.508950   1.766312
    27  H    7.000871   7.398039   3.081899   2.535915   1.765858
                   26         27
    26  H    0.000000
    27  H    1.766301   0.000000
 Stoichiometry    C8H14N2O3
 Framework group  C1[X(C8H14N2O3)]
 Deg. of freedom    75
 Full point group                 C1      NOp   1
 Largest Abelian subgroup         C1      NOp   1
 Largest concise Abelian subgroup C1      NOp   1
                         Standard orientation:                         
 ---------------------------------------------------------------------
 Center     Atomic      Atomic             Coordinates (Angstroms)
 Number     Number       Type             X           Y           Z
 ---------------------------------------------------------------------
      1          7           0        3.466018    0.037142   -0.613085
      2          6           0        4.640085   -0.822692   -0.625007
      3          6           0        2.351997   -0.316956    0.019276
      4          8           0        2.216495   -1.406933    0.589498
      5          6           0        1.245739    0.724238    0.053200
      6          7           0       -0.018518    0.019777    0.158848
      7          6           0       -1.169681    0.572779   -0.198528
      8          6           0        1.464889    1.665208    1.240179
      9          6           0       -2.397619   -0.332308    0.029873
     10          8           0       -1.300293    1.698226   -0.679900
     11          6           0       -3.711779    0.226348   -0.394783
     12          8           0       -2.241546   -1.422999    0.531455
     13          6           0       -4.869014   -0.723437   -0.142177
     14          1           0        3.505862    0.943744   -1.051957
     15          1           0        4.412308   -1.769882   -1.110261
     16          1           0        5.425299   -0.317168   -1.177401
     17          1           0        4.981182   -1.016749    0.390439
     18          1           0        1.245173    1.292556   -0.875347
     19          1           0       -0.024704   -0.906342    0.566810
     20          1           0        2.392446    2.221456    1.111486
     21          1           0        0.637707    2.370587    1.300233
     22          1           0        1.514767    1.092250    2.165983
     23          1           0       -3.838273    1.176644    0.131131
     24          1           0       -3.619354    0.489605   -1.452134
     25          1           0       -4.956105   -0.957056    0.918353
     26          1           0       -5.800990   -0.266818   -0.470747
     27          1           0       -4.732772   -1.656684   -0.687540
 ---------------------------------------------------------------------
 Rotational constants (GHZ):           1.9335812           0.3304256           0.3042413
 Standard basis: 6-311+G(d,p) (5D, 7F)
 There are   383 symmetry adapted cartesian basis functions of A   symmetry.
 There are   370 symmetry adapted basis functions of A   symmetry.
   370 basis functions,   580 primitive gaussians,   383 cartesian basis functions
    50 alpha electrons       50 beta electrons
       nuclear repulsion energy       812.0976981295 Hartrees.
 NAtoms=   27 NActive=   27 NUniq=   27 SFac= 1.00D+00 NAtFMM=   60 NAOKFM=F Big=F
 Integral buffers will be    131072 words long.
 Raffenetti 2 integral format.
 Two-electron integral symmetry is turned on.
 ------------------------------------------------------------------------------
 Polarizable Continuum Model (PCM)
 =================================
 Model                : PCM.
 Atomic radii         : SMD-Coulomb.
 Polarization charges : Total charges.
 Charge compensation  : None.
 Solution method      : On-the-fly selection.
 Cavity type          : VdW (van der Waals Surface) (Alpha=1.000).
 Cavity algorithm     : GePol (No added spheres)
                        Default sphere list used, NSphG=   27.
                        Lebedev-Laikov grids with approx.  5.0 points / Ang**2.
                        Smoothing algorithm: York/Karplus (Gamma=1.0000).
                        Polarization charges: spherical gaussians, with
                                              point-specific exponents (IZeta= 3).
                        Self-potential: point-specific (ISelfS= 7).
                        Self-field    : sphere-specific E.n sum rule (ISelfD= 2).
 1st derivatives      : Analytical E(r).r(x)/FMM algorithm (CHGder, D1EAlg=3).
                        Cavity 1st derivative terms included.
 Solvent              : Water, Eps=  78.355300 Eps(inf)=   1.777849
 ------------------------------------------------------------------------------
 ------------------------------------------------------------------------------
 Atomic radii for non-electrostatic terms: SMD-CDS.
 ------------------------------------------------------------------------------
 Nuclear repulsion after PCM non-electrostatic terms =      812.1080194769 Hartrees.
 One-electron integrals computed using PRISM.
 NBasis=   370 RedAO= T EigKep=  5.32D-06  NBF=   370
 NBsUse=   370 1.00D-06 EigRej= -1.00D+00 NBFU=   370
 Initial guess from the checkpoint file:  "2KT_3D.chk"
 B after Tr=    -0.000000    0.000000    0.000000
         Rot=    1.000000   -0.000051    0.000004   -0.000005 Ang=  -0.01 deg.
 Requested convergence on RMS density matrix=1.00D-08 within 128 cycles.
 Requested convergence on MAX density matrix=1.00D-06.
 Requested convergence on             energy=1.00D-06.
 No special actions if energy rises.
 Inv3:  Mode=1 IEnd=    11419203.
 Iteration    1 A*A^-1 deviation from unit magnitude is 7.44D-15 for    251.
 Iteration    1 A*A^-1 deviation from orthogonality  is 5.81D-15 for   1935    582.
 Iteration    1 A^-1*A deviation from unit magnitude is 6.11D-15 for    231.
 Iteration    1 A^-1*A deviation from orthogonality  is 2.00D-14 for   1315   1292.
 Error on total polarization charges =  0.05801
 SCF Done:  E(RM052X) =  -648.621292568     A.U. after    8 cycles
            NFock=  8  Conv=0.41D-08     -V/T= 2.0038
 SMD-CDS (non-electrostatic) energy       (kcal/mol) =       6.48
 (included in total energy above)
 D1PCM: PCM CHGder 1st derivatives, ID1Alg=3 FixD1E=F DoIter=F DoCFld=F I1PDM=0.
 Calling FoFJK, ICntrl=      2127 FMM=F ISym2X=0 I1Cent= 0 IOpClX= 0 NMat=1 NMatS=1 NMatT=0.
 ***** Axes restored to original set *****
 -------------------------------------------------------------------
 Center     Atomic                   Forces (Hartrees/Bohr)
 Number     Number              X              Y              Z
 -------------------------------------------------------------------
      1        7           0.000004112    0.000003004    0.000002335
      2        6          -0.000003399    0.000004996    0.000000752
      3        6          -0.000008652    0.000012012   -0.000006343
      4        8          -0.000001578   -0.000003560    0.000001781
      5        6           0.000003520   -0.000003963    0.000004960
      6        7           0.000000888    0.000002686    0.000001250
      7        6           0.000002742   -0.000010495   -0.000001905
      8        6          -0.000001029    0.000006075   -0.000001215
      9        6          -0.000003622    0.000001352   -0.000000627
     10        8           0.000003787    0.000004426    0.000001259
     11        6          -0.000001791    0.000000184    0.000003114
     12        8          -0.000001320   -0.000005331   -0.000003923
     13        6           0.000001893   -0.000008668   -0.000003498
     14        1           0.000001572    0.000002786    0.000005489
     15        1          -0.000002213    0.000003277    0.000003178
     16        1           0.000001266    0.000005393    0.000000767
     17        1           0.000001570    0.000004514    0.000001739
     18        1           0.000001464    0.000001440    0.000000739
     19        1          -0.000000598    0.000000025   -0.000001737
     20        1           0.000000645    0.000004923    0.000001571
     21        1           0.000000567    0.000002692    0.000001754
     22        1          -0.000000515    0.000003676    0.000002434
     23        1           0.000001340   -0.000005170   -0.000002872
     24        1           0.000002561   -0.000006614   -0.000002072
     25        1          -0.000001786   -0.000005508   -0.000003053
     26        1          -0.000000326   -0.000007185   -0.000002770
     27        1          -0.000001099   -0.000006968   -0.000003108
 -------------------------------------------------------------------
 Cartesian Forces:  Max     0.000012012 RMS     0.000003867

 GradGradGradGradGradGradGradGradGradGradGradGradGradGradGradGradGradGrad
 Berny optimization.
 Using GEDIIS/GDIIS optimizer.
 FormGI is forming the generalized inverse of G from B-inverse, IUseBI=4.
 Internal  Forces:  Max     0.000005880 RMS     0.000001468
 Search for a local minimum.
 Step number  21 out of a maximum of  135
 All quantities printed in internal units (Hartrees-Bohrs-Radians)
 Mixed Optimization -- En-DIIS/RFO-DIIS
 Swapping is turned off.
 Update second derivatives using D2CorX and points    7    8    9   10   11
                                                     12   13   14   15   16
                                                     17   18   19   20   21
 DE= -5.62D-09 DEPred=-1.11D-08 R= 5.05D-01
 Trust test= 5.05D-01 RLast= 2.20D-03 DXMaxT set to 1.62D-01
 ITU=  0  0  0 -1  1  1 -1  1 -1  1  0 -1  1  1 -1  1  1  0  1  1
 ITU=  0
     Eigenvalues ---    0.00122   0.00348   0.00363   0.00371   0.00494
     Eigenvalues ---    0.00672   0.00717   0.00940   0.01182   0.02391
     Eigenvalues ---    0.02452   0.03161   0.04152   0.04568   0.04876
     Eigenvalues ---    0.05005   0.05291   0.05399   0.05549   0.05661
     Eigenvalues ---    0.05715   0.05777   0.06604   0.07408   0.07685
     Eigenvalues ---    0.09028   0.13175   0.14718   0.15046   0.15849
     Eigenvalues ---    0.15919   0.16003   0.16011   0.16017   0.16058
     Eigenvalues ---    0.16150   0.16264   0.16493   0.17024   0.18126
     Eigenvalues ---    0.20748   0.22016   0.22144   0.24534   0.25143
     Eigenvalues ---    0.25958   0.26319   0.27504   0.29431   0.30071
     Eigenvalues ---    0.31403   0.32285   0.32924   0.34662   0.34721
     Eigenvalues ---    0.34756   0.34807   0.34811   0.34815   0.34816
     Eigenvalues ---    0.34832   0.34840   0.34855   0.34908   0.34950
     Eigenvalues ---    0.36418   0.36689   0.38317   0.53056   0.53328
     Eigenvalues ---    0.55654   0.57605   0.96775   0.98132   1.00917
 En-DIIS/RFO-DIIS/Sim-DIIS IScMMF=       -3 using points:    21   20   19   18   17   16   15   14   13   12
 RFO step:  Lambda=-1.35047204D-09.
 DIIS inversion failure, remove point  10.
 DIIS inversion failure, remove point   9.
 DIIS inversion failure, remove point   8.
 DIIS inversion failure, remove point   7.
 DIIS inversion failure, remove point   6.
 DIIS inversion failure, remove point   5.
 RFO-DIIS uses    4 points instead of   10
 DidBck=F Rises=F RFO-DIIS coefs:    1.51715   -0.48206   -0.09862    0.06353    0.00000
                  RFO-DIIS coefs:    0.00000    0.00000    0.00000    0.00000    0.00000
 Iteration  1 RMS(Cart)=  0.00019725 RMS(Int)=  0.00000003
 Iteration  2 RMS(Cart)=  0.00000004 RMS(Int)=  0.00000001
 Variable       Old X    -DE/DX   Delta X   Delta X   Delta X     New X
                                 (Linear)    (Quad)   (Total)
    R1        2.75011   0.00000  -0.00000   0.00001   0.00000   2.75012
    R2        2.51149  -0.00000  -0.00001   0.00001  -0.00000   2.51149
    R3        1.90490  -0.00000   0.00000  -0.00000   0.00000   1.90490
    R4        2.05670   0.00000   0.00001   0.00000   0.00001   2.05671
    R5        2.05038  -0.00000   0.00000  -0.00000  -0.00000   2.05038
    R6        2.05723  -0.00000  -0.00000  -0.00000  -0.00001   2.05723
    R7        2.33866   0.00001   0.00001  -0.00000   0.00001   2.33867
    R8        2.87154   0.00000  -0.00001   0.00001   0.00000   2.87154
    R9        2.74224   0.00000  -0.00002   0.00001  -0.00000   2.74223
   R10        2.89219   0.00000   0.00002   0.00000   0.00003   2.89222
   R11        2.05727  -0.00000   0.00000  -0.00001  -0.00000   2.05727
   R12        2.50608   0.00000  -0.00001   0.00001  -0.00000   2.50608
   R13        1.91243  -0.00000   0.00001  -0.00001   0.00000   1.91243
   R14        2.91483  -0.00000   0.00000  -0.00002  -0.00002   2.91480
   R15        2.32629   0.00001   0.00001   0.00000   0.00001   2.32630
   R16        2.05827   0.00000  -0.00001   0.00000  -0.00000   2.05827
   R17        2.05746  -0.00000  -0.00000  -0.00000  -0.00000   2.05745
   R18        2.05961  -0.00000   0.00000  -0.00000  -0.00000   2.05961
   R19        2.81528   0.00000   0.00000   0.00001   0.00001   2.81528
   R20        2.28770   0.00000   0.00000   0.00000   0.00001   2.28771
   R21        2.86908   0.00000  -0.00000   0.00002   0.00001   2.86910
   R22        2.06634   0.00000   0.00000  -0.00000   0.00000   2.06634
   R23        2.06650  -0.00000  -0.00001  -0.00000  -0.00001   2.06649
   R24        2.05875  -0.00000  -0.00000  -0.00000  -0.00000   2.05875
   R25        2.05715  -0.00000   0.00000  -0.00000  -0.00000   2.05715
   R26        2.05879   0.00000  -0.00000   0.00000  -0.00000   2.05879
    A1        2.12084  -0.00000  -0.00001   0.00000  -0.00001   2.12083
    A2        2.08970  -0.00000  -0.00001  -0.00000  -0.00001   2.08968
    A3        2.07135   0.00000   0.00002  -0.00000   0.00002   2.07137
    A4        1.92731   0.00000  -0.00000   0.00002   0.00002   1.92732
    A5        1.88887  -0.00000   0.00001  -0.00002  -0.00000   1.88886
    A6        1.92885  -0.00000   0.00000  -0.00002  -0.00001   1.92884
    A7        1.90704  -0.00000  -0.00002   0.00001  -0.00001   1.90704
    A8        1.90320  -0.00000  -0.00001   0.00000  -0.00001   1.90319
    A9        1.90836   0.00000   0.00002   0.00000   0.00002   1.90838
   A10        2.14799  -0.00000  -0.00000  -0.00001  -0.00001   2.14798
   A11        2.02450   0.00000   0.00003  -0.00001   0.00001   2.02452
   A12        2.11004   0.00000  -0.00003   0.00002  -0.00000   2.11004
   A13        1.87890   0.00000  -0.00002   0.00006   0.00004   1.87894
   A14        1.91170  -0.00000  -0.00006   0.00001  -0.00005   1.91166
   A15        1.91669  -0.00000   0.00003  -0.00003   0.00001   1.91669
   A16        1.94632  -0.00000  -0.00000  -0.00000  -0.00000   1.94631
   A17        1.89132  -0.00000   0.00003  -0.00002   0.00002   1.89134
   A18        1.91836   0.00000   0.00002  -0.00003  -0.00001   1.91835
   A19        2.13436   0.00000   0.00003  -0.00002   0.00001   2.13437
   A20        2.07023   0.00000  -0.00002   0.00001  -0.00001   2.07022
   A21        2.07708  -0.00000  -0.00001   0.00000  -0.00001   2.07707
   A22        1.98936   0.00000  -0.00000   0.00001   0.00001   1.98937
   A23        2.18794   0.00000   0.00000  -0.00000   0.00000   2.18794
   A24        2.10586  -0.00000   0.00000  -0.00001  -0.00001   2.10585
   A25        1.92228   0.00000  -0.00000   0.00001   0.00001   1.92229
   A26        1.90955   0.00000   0.00001  -0.00000   0.00001   1.90957
   A27        1.91998  -0.00000  -0.00001  -0.00002  -0.00003   1.91995
   A28        1.89933  -0.00000   0.00001  -0.00000   0.00001   1.89933
   A29        1.90696   0.00000   0.00000   0.00000   0.00001   1.90696
   A30        1.90551   0.00000  -0.00001   0.00001  -0.00000   1.90551
   A31        2.02639   0.00000   0.00000   0.00000   0.00001   2.02640
   A32        2.07988   0.00000  -0.00001   0.00001   0.00000   2.07988
   A33        2.17691  -0.00000   0.00000  -0.00001  -0.00001   2.17690
   A34        1.97181  -0.00000   0.00000  -0.00001  -0.00001   1.97180
   A35        1.86591  -0.00000  -0.00001  -0.00000  -0.00002   1.86589
   A36        1.86641   0.00000   0.00001   0.00001   0.00002   1.86644
   A37        1.95571  -0.00000  -0.00001  -0.00001  -0.00002   1.95568
   A38        1.95616  -0.00000  -0.00000  -0.00000  -0.00000   1.95616
   A39        1.83963   0.00000   0.00001   0.00002   0.00003   1.83965
   A40        1.93590   0.00000   0.00000   0.00000   0.00000   1.93590
   A41        1.91764  -0.00000  -0.00000  -0.00001  -0.00001   1.91763
   A42        1.93614  -0.00000  -0.00000   0.00000  -0.00000   1.93614
   A43        1.89160   0.00000   0.00000   0.00000   0.00000   1.89160
   A44        1.88978   0.00000   0.00000   0.00000   0.00000   1.88978
   A45        1.89155   0.00000   0.00000   0.00000   0.00000   1.89156
    D1        1.07851   0.00000   0.00019   0.00023   0.00042   1.07893
    D2       -3.11800   0.00000   0.00018   0.00024   0.00042  -3.11758
    D3       -1.02881   0.00000   0.00021   0.00022   0.00043  -1.02838
    D4       -2.11857   0.00000   0.00016   0.00017   0.00033  -2.11824
    D5       -0.03190   0.00000   0.00014   0.00018   0.00033  -0.03157
    D6        2.05729   0.00000   0.00018   0.00017   0.00034   2.05764
    D7       -0.05017  -0.00000   0.00001  -0.00007  -0.00007  -0.05023
    D8        3.05284  -0.00000  -0.00007  -0.00001  -0.00008   3.05276
    D9       -3.13684  -0.00000   0.00004  -0.00002   0.00002  -3.13681
   D10       -0.03383   0.00000  -0.00003   0.00004   0.00001  -0.03383
   D11        2.66574   0.00000   0.00006   0.00002   0.00009   2.66583
   D12       -1.49830  -0.00000   0.00001   0.00007   0.00008  -1.49822
   D13        0.61002  -0.00000   0.00002   0.00002   0.00004   0.61006
   D14       -0.51354   0.00000  -0.00001   0.00008   0.00007  -0.51347
   D15        1.60561   0.00000  -0.00006   0.00012   0.00006   1.60567
   D16       -2.56926  -0.00000  -0.00005   0.00008   0.00002  -2.56923
   D17       -2.76689  -0.00000  -0.00025   0.00010  -0.00016  -2.76704
   D18        0.43437  -0.00000  -0.00018   0.00020   0.00002   0.43440
   D19        1.41889  -0.00000  -0.00017   0.00005  -0.00012   1.41877
   D20       -1.66303   0.00000  -0.00009   0.00015   0.00006  -1.66297
   D21       -0.69483   0.00000  -0.00021   0.00009  -0.00012  -0.69495
   D22        2.50643   0.00000  -0.00013   0.00019   0.00006   2.50649
   D23        1.11712  -0.00000   0.00007  -0.00011  -0.00004   1.11708
   D24       -3.07907  -0.00000   0.00009  -0.00011  -0.00002  -3.07909
   D25       -0.98588  -0.00000   0.00008  -0.00011  -0.00003  -0.98592
   D26       -3.08807   0.00000   0.00000  -0.00003  -0.00002  -3.08810
   D27       -1.00108   0.00000   0.00002  -0.00002  -0.00000  -1.00108
   D28        1.09211   0.00000   0.00001  -0.00003  -0.00002   1.09209
   D29       -0.99018  -0.00000   0.00006  -0.00007  -0.00001  -0.99019
   D30        1.09681   0.00000   0.00007  -0.00006   0.00001   1.09682
   D31       -3.09318  -0.00000   0.00007  -0.00007  -0.00000  -3.09319
   D32       -3.11398   0.00000   0.00005   0.00005   0.00010  -3.11388
   D33        0.03447   0.00000   0.00003   0.00008   0.00011   0.03459
   D34       -0.03228  -0.00000  -0.00003  -0.00005  -0.00008  -0.03237
   D35        3.11617   0.00000  -0.00005  -0.00002  -0.00007   3.11611
   D36       -3.10972   0.00000  -0.00002   0.00009   0.00007  -3.10965
   D37        0.03393   0.00000  -0.00001   0.00011   0.00010   0.03403
   D38        0.02537  -0.00000  -0.00001   0.00006   0.00005   0.02542
   D39       -3.11417   0.00000   0.00000   0.00008   0.00008  -3.11408
   D40        3.13831   0.00000  -0.00009   0.00000  -0.00009   3.13822
   D41       -0.98555  -0.00000  -0.00011  -0.00002  -0.00013  -0.98568
   D42        0.97804   0.00000  -0.00010   0.00001  -0.00010   0.97794
   D43       -0.00547  -0.00000  -0.00010  -0.00002  -0.00012  -0.00559
   D44        2.15386  -0.00000  -0.00012  -0.00005  -0.00017   2.15369
   D45       -2.16574  -0.00000  -0.00011  -0.00002  -0.00013  -2.16587
   D46        1.05155  -0.00000  -0.00006   0.00001  -0.00005   1.05150
   D47       -3.14057  -0.00000  -0.00006   0.00001  -0.00005  -3.14062
   D48       -1.04940  -0.00000  -0.00006   0.00001  -0.00006  -1.04946
   D49       -1.05747   0.00000  -0.00004   0.00004  -0.00001  -1.05748
   D50        1.03360   0.00000  -0.00004   0.00004  -0.00001   1.03359
   D51        3.12476   0.00000  -0.00004   0.00003  -0.00001   3.12475
   D52       -3.12162   0.00000  -0.00004   0.00002  -0.00003  -3.12165
   D53       -1.03056   0.00000  -0.00004   0.00002  -0.00003  -1.03058
   D54        1.06061   0.00000  -0.00005   0.00001  -0.00003   1.06058
         Item               Value     Threshold  Converged?
 Maximum Force            0.000006     0.000450     YES
 RMS     Force            0.000001     0.000300     YES
 Maximum Displacement     0.001162     0.001800     YES
 RMS     Displacement     0.000197     0.001200     YES
 Predicted change in Energy=-3.249761D-09
 Optimization completed.
    -- Stationary point found.
                           ----------------------------
                           !   Optimized Parameters   !
                           ! (Angstroms and Degrees)  !
 --------------------------                            --------------------------
 ! Name  Definition              Value          Derivative Info.                !
 --------------------------------------------------------------------------------
 ! R1    R(1,2)                  1.4553         -DE/DX =    0.0                 !
 ! R2    R(1,3)                  1.329          -DE/DX =    0.0                 !
 ! R3    R(1,14)                 1.008          -DE/DX =    0.0                 !
 ! R4    R(2,15)                 1.0884         -DE/DX =    0.0                 !
 ! R5    R(2,16)                 1.085          -DE/DX =    0.0                 !
 ! R6    R(2,17)                 1.0886         -DE/DX =    0.0                 !
 ! R7    R(3,4)                  1.2376         -DE/DX =    0.0                 !
 ! R8    R(3,5)                  1.5196         -DE/DX =    0.0                 !
 ! R9    R(5,6)                  1.4511         -DE/DX =    0.0                 !
 ! R10   R(5,8)                  1.5305         -DE/DX =    0.0                 !
 ! R11   R(5,18)                 1.0887         -DE/DX =    0.0                 !
 ! R12   R(6,7)                  1.3262         -DE/DX =    0.0                 !
 ! R13   R(6,19)                 1.012          -DE/DX =    0.0                 !
 ! R14   R(7,9)                  1.5425         -DE/DX =    0.0                 !
 ! R15   R(7,10)                 1.231          -DE/DX =    0.0                 !
 ! R16   R(8,20)                 1.0892         -DE/DX =    0.0                 !
 ! R17   R(8,21)                 1.0888         -DE/DX =    0.0                 !
 ! R18   R(8,22)                 1.0899         -DE/DX =    0.0                 !
 ! R19   R(9,11)                 1.4898         -DE/DX =    0.0                 !
 ! R20   R(9,12)                 1.2106         -DE/DX =    0.0                 !
 ! R21   R(11,13)                1.5183         -DE/DX =    0.0                 !
 ! R22   R(11,23)                1.0935         -DE/DX =    0.0                 !
 ! R23   R(11,24)                1.0935         -DE/DX =    0.0                 !
 ! R24   R(13,25)                1.0894         -DE/DX =    0.0                 !
 ! R25   R(13,26)                1.0886         -DE/DX =    0.0                 !
 ! R26   R(13,27)                1.0895         -DE/DX =    0.0                 !
 ! A1    A(2,1,3)              121.5149         -DE/DX =    0.0                 !
 ! A2    A(2,1,14)             119.7308         -DE/DX =    0.0                 !
 ! A3    A(3,1,14)             118.6798         -DE/DX =    0.0                 !
 ! A4    A(1,2,15)             110.4265         -DE/DX =    0.0                 !
 ! A5    A(1,2,16)             108.2241         -DE/DX =    0.0                 !
 ! A6    A(1,2,17)             110.515          -DE/DX =    0.0                 !
 ! A7    A(15,2,16)            109.2656         -DE/DX =    0.0                 !
 ! A8    A(15,2,17)            109.0456         -DE/DX =    0.0                 !
 ! A9    A(16,2,17)            109.3408         -DE/DX =    0.0                 !
 ! A10   A(1,3,4)              123.0706         -DE/DX =    0.0                 !
 ! A11   A(1,3,5)              115.9955         -DE/DX =    0.0                 !
 ! A12   A(4,3,5)              120.8964         -DE/DX =    0.0                 !
 ! A13   A(3,5,6)              107.6532         -DE/DX =    0.0                 !
 ! A14   A(3,5,8)              109.5326         -DE/DX =    0.0                 !
 ! A15   A(3,5,18)             109.818          -DE/DX =    0.0                 !
 ! A16   A(6,5,8)              111.5157         -DE/DX =    0.0                 !
 ! A17   A(6,5,18)             108.3649         -DE/DX =    0.0                 !
 ! A18   A(8,5,18)             109.9142         -DE/DX =    0.0                 !
 ! A19   A(5,6,7)              122.2901         -DE/DX =    0.0                 !
 ! A20   A(5,6,19)             118.6155         -DE/DX =    0.0                 !
 ! A21   A(7,6,19)             119.0079         -DE/DX =    0.0                 !
 ! A22   A(6,7,9)              113.9822         -DE/DX =    0.0                 !
 ! A23   A(6,7,10)             125.3598         -DE/DX =    0.0                 !
 ! A24   A(9,7,10)             120.6569         -DE/DX =    0.0                 !
 ! A25   A(5,8,20)             110.1386         -DE/DX =    0.0                 !
 ! A26   A(5,8,21)             109.4094         -DE/DX =    0.0                 !
 ! A27   A(5,8,22)             110.007          -DE/DX =    0.0                 !
 ! A28   A(20,8,21)            108.8234         -DE/DX =    0.0                 !
 ! A29   A(20,8,22)            109.2606         -DE/DX =    0.0                 !
 ! A30   A(21,8,22)            109.1778         -DE/DX =    0.0                 !
 ! A31   A(7,9,11)             116.1038         -DE/DX =    0.0                 !
 ! A32   A(7,9,12)             119.1684         -DE/DX =    0.0                 !
 ! A33   A(11,9,12)            124.7277         -DE/DX =    0.0                 !
 ! A34   A(9,11,13)            112.9762         -DE/DX =    0.0                 !
 ! A35   A(9,11,23)            106.9085         -DE/DX =    0.0                 !
 ! A36   A(9,11,24)            106.9377         -DE/DX =    0.0                 !
 ! A37   A(13,11,23)           112.0537         -DE/DX =    0.0                 !
 ! A38   A(13,11,24)           112.0796         -DE/DX =    0.0                 !
 ! A39   A(23,11,24)           105.4029         -DE/DX =    0.0                 !
 ! A40   A(11,13,25)           110.9188         -DE/DX =    0.0                 !
 ! A41   A(11,13,26)           109.8727         -DE/DX =    0.0                 !
 ! A42   A(11,13,27)           110.9328         -DE/DX =    0.0                 !
 ! A43   A(25,13,26)           108.3806         -DE/DX =    0.0                 !
 ! A44   A(25,13,27)           108.2764         -DE/DX =    0.0                 !
 ! A45   A(26,13,27)           108.378          -DE/DX =    0.0                 !
 ! D1    D(3,1,2,15)            61.794          -DE/DX =    0.0                 !
 ! D2    D(3,1,2,16)          -178.6482         -DE/DX =    0.0                 !
 ! D3    D(3,1,2,17)           -58.9465         -DE/DX =    0.0                 !
 ! D4    D(14,1,2,15)         -121.3853         -DE/DX =    0.0                 !
 ! D5    D(14,1,2,16)           -1.8275         -DE/DX =    0.0                 !
 ! D6    D(14,1,2,17)          117.8743         -DE/DX =    0.0                 !
 ! D7    D(2,1,3,4)             -2.8743         -DE/DX =    0.0                 !
 ! D8    D(2,1,3,5)            174.9147         -DE/DX =    0.0                 !
 ! D9    D(14,1,3,4)          -179.7275         -DE/DX =    0.0                 !
 ! D10   D(14,1,3,5)            -1.9385         -DE/DX =    0.0                 !
 ! D11   D(1,3,5,6)            152.7357         -DE/DX =    0.0                 !
 ! D12   D(1,3,5,8)            -85.8461         -DE/DX =    0.0                 !
 ! D13   D(1,3,5,18)            34.9517         -DE/DX =    0.0                 !
 ! D14   D(4,3,5,6)            -29.4235         -DE/DX =    0.0                 !
 ! D15   D(4,3,5,8)             91.9947         -DE/DX =    0.0                 !
 ! D16   D(4,3,5,18)          -147.2075         -DE/DX =    0.0                 !
 ! D17   D(3,5,6,7)           -158.531          -DE/DX =    0.0                 !
 ! D18   D(3,5,6,19)            24.8878         -DE/DX =    0.0                 !
 ! D19   D(8,5,6,7)             81.2965         -DE/DX =    0.0                 !
 ! D20   D(8,5,6,19)           -95.2847         -DE/DX =    0.0                 !
 ! D21   D(18,5,6,7)           -39.811          -DE/DX =    0.0                 !
 ! D22   D(18,5,6,19)          143.6078         -DE/DX =    0.0                 !
 ! D23   D(3,5,8,20)            64.0061         -DE/DX =    0.0                 !
 ! D24   D(3,5,8,21)          -176.4178         -DE/DX =    0.0                 !
 ! D25   D(3,5,8,22)           -56.4869         -DE/DX =    0.0                 !
 ! D26   D(6,5,8,20)          -176.9336         -DE/DX =    0.0                 !
 ! D27   D(6,5,8,21)           -57.3575         -DE/DX =    0.0                 !
 ! D28   D(6,5,8,22)            62.5733         -DE/DX =    0.0                 !
 ! D29   D(18,5,8,20)          -56.7333         -DE/DX =    0.0                 !
 ! D30   D(18,5,8,21)           62.8428         -DE/DX =    0.0                 !
 ! D31   D(18,5,8,22)         -177.2264         -DE/DX =    0.0                 !
 ! D32   D(5,6,7,9)           -178.4179         -DE/DX =    0.0                 !
 ! D33   D(5,6,7,10)             1.9752         -DE/DX =    0.0                 !
 ! D34   D(19,6,7,9)            -1.8496         -DE/DX =    0.0                 !
 ! D35   D(19,6,7,10)          178.5435         -DE/DX =    0.0                 !
 ! D36   D(6,7,9,11)          -178.1737         -DE/DX =    0.0                 !
 ! D37   D(6,7,9,12)             1.9442         -DE/DX =    0.0                 !
 ! D38   D(10,7,9,11)            1.4536         -DE/DX =    0.0                 !
 ! D39   D(10,7,9,12)         -178.4285         -DE/DX =    0.0                 !
 ! D40   D(7,9,11,13)          179.8117         -DE/DX =    0.0                 !
 ! D41   D(7,9,11,23)          -56.4678         -DE/DX =    0.0                 !
 ! D42   D(7,9,11,24)           56.0376         -DE/DX =    0.0                 !
 ! D43   D(12,9,11,13)          -0.3136         -DE/DX =    0.0                 !
 ! D44   D(12,9,11,23)         123.407          -DE/DX =    0.0                 !
 ! D45   D(12,9,11,24)        -124.0877         -DE/DX =    0.0                 !
 ! D46   D(9,11,13,25)          60.2492         -DE/DX =    0.0                 !
 ! D47   D(9,11,13,26)        -179.9414         -DE/DX =    0.0                 !
 ! D48   D(9,11,13,27)         -60.1264         -DE/DX =    0.0                 !
 ! D49   D(23,11,13,25)        -60.5886         -DE/DX =    0.0                 !
 ! D50   D(23,11,13,26)         59.2208         -DE/DX =    0.0                 !
 ! D51   D(23,11,13,27)        179.0358         -DE/DX =    0.0                 !
 ! D52   D(24,11,13,25)       -178.8559         -DE/DX =    0.0                 !
 ! D53   D(24,11,13,26)        -59.0465         -DE/DX =    0.0                 !
 ! D54   D(24,11,13,27)         60.7685         -DE/DX =    0.0                 !
 --------------------------------------------------------------------------------
 GradGradGradGradGradGradGradGradGradGradGradGradGradGradGradGradGradGrad

                          Input orientation:                          
 ---------------------------------------------------------------------
 Center     Atomic      Atomic             Coordinates (Angstroms)
 Number     Number       Type             X           Y           Z
 ---------------------------------------------------------------------
      1          7           0       -3.437812    1.242975    0.966529
      2          6           0       -4.534632    0.420537    1.454868
      3          6           0       -2.341415    0.701168    0.446271
      4          8           0       -2.154241   -0.520780    0.388184
      5          6           0       -1.328246    1.674152   -0.133238
      6          7           0       -0.020100    1.052413   -0.043968
      7          6           0        1.102626    1.757867   -0.066801
      8          6           0       -1.699014    1.996010   -1.582828
      9          6           0        2.383154    0.900682    0.001483
     10          8           0        1.171546    2.985406   -0.128521
     11          6           0        3.671847    1.647887    0.021534
     12          8           0        2.284781   -0.305514    0.032516
     13          6           0        4.884149    0.736736    0.093790
     14          1           0       -3.523297    2.247326    0.976235
     15          1           0       -4.199723   -0.210887    2.275637
     16          1           0       -5.321471    1.079010    1.807787
     17          1           0       -4.923098   -0.210177    0.657102
     18          1           0       -1.314573    2.588335    0.457749
     19          1           0        0.035480    0.042360   -0.014400
     20          1           0       -2.658707    2.509821   -1.619205
     21          1           0       -0.937690    2.642665   -2.015978
     22          1           0       -1.761178    1.076578   -2.164774
     23          1           0        3.686440    2.280725   -0.870067
     24          1           0        3.626169    2.339156    0.867641
     25          1           0        4.921900    0.070513   -0.767377
     26          1           0        5.794890    1.332908    0.106755
     27          1           0        4.859715    0.127227    0.996474
 ---------------------------------------------------------------------
                    Distance matrix (angstroms):
                    1          2          3          4          5
     1  N    0.000000
     2  C    1.455298   0.000000
     3  C    1.329026   2.430272   0.000000
     4  O    2.256738   2.773112   1.237564   0.000000
     5  C    2.417783   3.791377   1.519553   2.402473   0.000000
     6  N    3.569058   4.798622   2.398377   2.686308   1.451128
     7  C    4.684919   5.990209   3.638857   4.000804   2.433220
     8  C    3.176429   4.444146   2.491292   3.228986   1.530481
     9  C    5.910341   7.085099   4.749653   4.770540   3.793533
    10  O    5.047909   6.453382   4.229542   4.860163   2.822830
    11  C    7.183608   8.420637   6.102131   6.227427   5.002556
    12  O    6.001522   7.003900   4.752503   4.458448   4.123168
    13  C    8.382898   9.521866   7.234244   7.155903   6.286822
    14  H    1.008029   2.142205   2.017005   3.143648   2.525412
    15  H    2.099520   1.088358   2.762559   2.800448   4.195406
    16  H    2.069486   1.085013   3.298064   3.821773   4.479690
    17  H    2.100826   1.088640   2.745922   2.799171   4.135009
    18  H    2.564565   4.007789   2.148473   3.221254   1.088662
    19  H    3.803611   4.815360   2.509158   2.296537   2.129933
    20  H    2.982939   4.163427   2.763710   3.669964   2.162538
    21  H    4.135830   5.470156   3.435480   4.155403   2.152965
    22  H    3.555819   4.606978   2.700956   3.037046   2.161403
    23  H    7.430005   8.743663   6.368892   6.598878   5.104696
    24  H    7.149211   8.403844   6.202630   6.467013   5.098060
    25  H    8.617765   9.720436   7.390968   7.194215   6.483680
    26  H    9.273084  10.457000   8.167853   8.167255   7.135342
    27  H    8.372260   9.410096   7.244888   7.070043   6.477660
                    6          7          8          9         10
     6  N    0.000000
     7  C    1.326161   0.000000
     8  C    2.465201   3.194407   0.000000
     9  C    2.408468   1.542460   4.513744   0.000000
    10  O    2.272363   1.231020   3.366604   2.414740   0.000000
    11  C    3.740234   2.573090   5.616165   1.489780   2.839538
    12  O    2.676246   2.380105   4.876164   1.210599   3.477842
    13  C    4.916329   3.920257   6.909041   2.508061   4.346189
    14  H    3.839403   4.767248   3.152771   6.135940   4.879221
    15  H    4.944264   6.121921   5.100166   7.052775   6.696775
    16  H    5.615536   6.726363   5.045727   7.915541   7.038672
    17  H    5.111264   6.380172   4.503251   7.419244   6.926301
    18  H    2.070372   2.609154   2.159304   4.090176   2.584989
    19  H    1.012013   2.021018   3.047160   2.499709   3.156769
    20  H    3.401126   4.137997   1.089191   5.535009   4.137531
    21  H    2.694382   2.957203   1.088759   4.258246   2.851112
    22  H    2.744040   3.614833   1.089899   4.679647   4.048558
    23  H    3.991194   2.755850   5.439872   2.088701   2.714988
    24  H    3.972659   2.753061   5.871977   2.089144   2.726747
    25  H    5.090266   4.233772   6.943270   2.779488   4.792691
    26  H    5.823702   4.714663   7.710576   3.440616   4.915426
    27  H    5.074552   4.231460   7.291232   2.778775   4.799728
                   11         12         13         14         15
    11  C    0.000000
    12  O    2.395798   0.000000
    13  C    1.518254   2.801206   0.000000
    14  H    7.282916   6.414153   8.587533   0.000000
    15  H    8.396287   6.862167   9.390163   2.861610   0.000000
    16  H    9.186626   7.932437  10.354208   2.299972   1.772297
    17  H    8.816430   7.235518   9.868944   2.846157   1.772830
    18  H    5.093045   4.637945   6.479587   2.294248   4.411854
    19  H    3.975194   2.276526   4.899332   4.302107   4.821343
    20  H    6.596277   5.923881   7.935544   2.748222   4.994675
    21  H    5.137009   4.824149   6.479004   3.974291   6.099310
    22  H    5.884224   4.807083   7.026875   3.787037   5.226980
    23  H    1.093458   3.077002   2.178860   7.442463   8.848455
    24  H    1.093544   3.080753   2.179245   7.150880   8.350434
    25  H    2.161740   2.781299   1.089443   8.893820   9.619934
    26  H    2.147972   3.874378   1.088595   9.403231  10.343096
    27  H    2.161931   2.783301   1.089465   8.646971   9.155544
                   16         17         18         19         20
    16  H    0.000000
    17  H    1.773352   0.000000
    18  H    4.489532   4.570871   0.000000
    19  H    5.752559   5.010209   2.920198   0.000000
    20  H    4.569662   4.208020   2.475197   3.990290   0.000000
    21  H    6.023598   5.582790   2.502861   3.422713   1.771151
    22  H    5.334504   4.429048   3.059819   2.986921   1.776904
    23  H    9.474043   9.091809   5.183421   4.367145   6.393324
    24  H    9.084718   8.923755   4.963974   4.352736   6.761154
    25  H   10.610145   9.951478   6.836224   4.944175   8.008835
    26  H   11.248620  10.842475   7.227984   5.903473   8.707891
    27  H   10.257713   9.794511   6.668516   4.929737   8.309344
                   21         22         23         24         25
    21  H    0.000000
    22  H    1.775641   0.000000
    23  H    4.777729   5.727371   0.000000
    24  H    5.407049   6.309766   1.739735   0.000000
    25  H    6.519951   6.901334   2.534156   3.082036   0.000000
    26  H    7.179769   7.894283   2.509601   2.508950   1.766312
    27  H    7.000871   7.398039   3.081899   2.535915   1.765858
                   26         27
    26  H    0.000000
    27  H    1.766301   0.000000
 Stoichiometry    C8H14N2O3
 Framework group  C1[X(C8H14N2O3)]
 Deg. of freedom    75
 Full point group                 C1      NOp   1
 Largest Abelian subgroup         C1      NOp   1
 Largest concise Abelian subgroup C1      NOp   1
                         Standard orientation:                         
 ---------------------------------------------------------------------
 Center     Atomic      Atomic             Coordinates (Angstroms)
 Number     Number       Type             X           Y           Z
 ---------------------------------------------------------------------
      1          7           0        3.466018    0.037142   -0.613085
      2          6           0        4.640085   -0.822692   -0.625007
      3          6           0        2.351997   -0.316956    0.019276
      4          8           0        2.216495   -1.406933    0.589498
      5          6           0        1.245739    0.724238    0.053200
      6          7           0       -0.018518    0.019777    0.158848
      7          6           0       -1.169681    0.572779   -0.198528
      8          6           0        1.464889    1.665208    1.240179
      9          6           0       -2.397619   -0.332308    0.029873
     10          8           0       -1.300293    1.698226   -0.679900
     11          6           0       -3.711779    0.226348   -0.394783
     12          8           0       -2.241546   -1.422999    0.531455
     13          6           0       -4.869014   -0.723437   -0.142177
     14          1           0        3.505862    0.943744   -1.051957
     15          1           0        4.412308   -1.769882   -1.110261
     16          1           0        5.425299   -0.317168   -1.177401
     17          1           0        4.981182   -1.016749    0.390439
     18          1           0        1.245173    1.292556   -0.875347
     19          1           0       -0.024704   -0.906342    0.566810
     20          1           0        2.392446    2.221456    1.111486
     21          1           0        0.637707    2.370587    1.300233
     22          1           0        1.514767    1.092250    2.165983
     23          1           0       -3.838273    1.176644    0.131131
     24          1           0       -3.619354    0.489605   -1.452134
     25          1           0       -4.956105   -0.957056    0.918353
     26          1           0       -5.800990   -0.266818   -0.470747
     27          1           0       -4.732772   -1.656684   -0.687540
 ---------------------------------------------------------------------
 Rotational constants (GHZ):           1.9335812           0.3304256           0.3042413

 **********************************************************************

            Population analysis using the SCF Density.

 **********************************************************************

 Orbital symmetries:
       Occupied  (A) (A) (A) (A) (A) (A) (A) (A) (A) (A) (A) (A)
                 (A) (A) (A) (A) (A) (A) (A) (A) (A) (A) (A) (A)
                 (A) (A) (A) (A) (A) (A) (A) (A) (A) (A) (A) (A)
                 (A) (A) (A) (A) (A) (A) (A) (A) (A) (A) (A) (A)
                 (A) (A)
       Virtual   (A) (A) (A) (A) (A) (A) (A) (A) (A) (A) (A) (A)
                 (A) (A) (A) (A) (A) (A) (A) (A) (A) (A) (A) (A)
                 (A) (A) (A) (A) (A) (A) (A) (A) (A) (A) (A) (A)
                 (A) (A) (A) (A) (A) (A) (A) (A) (A) (A) (A) (A)
                 (A) (A) (A) (A) (A) (A) (A) (A) (A) (A) (A) (A)
                 (A) (A) (A) (A) (A) (A) (A) (A) (A) (A) (A) (A)
                 (A) (A) (A) (A) (A) (A) (A) (A) (A) (A) (A) (A)
                 (A) (A) (A) (A) (A) (A) (A) (A) (A) (A) (A) (A)
                 (A) (A) (A) (A) (A) (A) (A) (A) (A) (A) (A) (A)
                 (A) (A) (A) (A) (A) (A) (A) (A) (A) (A) (A) (A)
                 (A) (A) (A) (A) (A) (A) (A) (A) (A) (A) (A) (A)
                 (A) (A) (A) (A) (A) (A) (A) (A) (A) (A) (A) (A)
                 (A) (A) (A) (A) (A) (A) (A) (A) (A) (A) (A) (A)
                 (A) (A) (A) (A) (A) (A) (A) (A) (A) (A) (A) (A)
                 (A) (A) (A) (A) (A) (A) (A) (A) (A) (A) (A) (A)
                 (A) (A) (A) (A) (A) (A) (A) (A) (A) (A) (A) (A)
                 (A) (A) (A) (A) (A) (A) (A) (A) (A) (A) (A) (A)
                 (A) (A) (A) (A) (A) (A) (A) (A) (A) (A) (A) (A)
                 (A) (A) (A) (A) (A) (A) (A) (A) (A) (A) (A) (A)
                 (A) (A) (A) (A) (A) (A) (A) (A) (A) (A) (A) (A)
                 (A) (A) (A) (A) (A) (A) (A) (A) (A) (A) (A) (A)
                 (A) (A) (A) (A) (A) (A) (A) (A) (A) (A) (A) (A)
                 (A) (A) (A) (A) (A) (A) (A) (A) (A) (A) (A) (A)
                 (A) (A) (A) (A) (A) (A) (A) (A) (A) (A) (A) (A)
                 (A) (A) (A) (A) (A) (A) (A) (A) (A) (A) (A) (A)
                 (A) (A) (A) (A) (A) (A) (A) (A) (A) (A) (A) (A)
                 (A) (A) (A) (A) (A) (A) (A) (A)
 The electronic state is 1-A.
 Alpha  occ. eigenvalues --  -19.68966 -19.65771 -19.64924 -14.82898 -14.82124
 Alpha  occ. eigenvalues --  -10.69464 -10.68732 -10.68659 -10.62431 -10.58892
 Alpha  occ. eigenvalues --  -10.57107 -10.55741 -10.54826  -1.21361  -1.18693
 Alpha  occ. eigenvalues --   -1.18032  -1.06497  -1.05200  -0.90116  -0.89545
 Alpha  occ. eigenvalues --   -0.81744  -0.79404  -0.75644  -0.70187  -0.68621
 Alpha  occ. eigenvalues --   -0.67892  -0.62043  -0.59187  -0.58602  -0.56686
 Alpha  occ. eigenvalues --   -0.56156  -0.55136  -0.54034  -0.52824  -0.51658
 Alpha  occ. eigenvalues --   -0.50968  -0.48447  -0.47086  -0.46616  -0.46029
 Alpha  occ. eigenvalues --   -0.44967  -0.44615  -0.43762  -0.43488  -0.41657
 Alpha  occ. eigenvalues --   -0.41386  -0.36261  -0.34569  -0.33606  -0.33454
 Alpha virt. eigenvalues --   -0.03265   0.04188   0.04892   0.05588   0.06729
 Alpha virt. eigenvalues --    0.07190   0.07459   0.08017   0.08935   0.09621
 Alpha virt. eigenvalues --    0.09765   0.10357   0.10683   0.11110   0.11678
 Alpha virt. eigenvalues --    0.12139   0.12334   0.12496   0.13940   0.14046
 Alpha virt. eigenvalues --    0.14302   0.15087   0.15633   0.15999   0.16355
 Alpha virt. eigenvalues --    0.17738   0.18357   0.18512   0.19945   0.20023
 Alpha virt. eigenvalues --    0.20438   0.20933   0.21418   0.21742   0.22307
 Alpha virt. eigenvalues --    0.22999   0.23189   0.23595   0.24036   0.25040
 Alpha virt. eigenvalues --    0.25947   0.26122   0.26710   0.27091   0.27349
 Alpha virt. eigenvalues --    0.28480   0.28505   0.28847   0.29587   0.29937
 Alpha virt. eigenvalues --    0.30265   0.30600   0.31311   0.31491   0.31777
 Alpha virt. eigenvalues --    0.32056   0.32923   0.33837   0.33872   0.33948
 Alpha virt. eigenvalues --    0.34076   0.34437   0.35424   0.36113   0.36811
 Alpha virt. eigenvalues --    0.37638   0.38087   0.38229   0.38667   0.40147
 Alpha virt. eigenvalues --    0.40803   0.42116   0.42971   0.44085   0.45032
 Alpha virt. eigenvalues --    0.46090   0.47264   0.47905   0.49857   0.50397
 Alpha virt. eigenvalues --    0.51656   0.51801   0.53270   0.54035   0.55381
 Alpha virt. eigenvalues --    0.55719   0.56889   0.58215   0.60331   0.61685
 Alpha virt. eigenvalues --    0.61870   0.62446   0.63903   0.65335   0.67021
 Alpha virt. eigenvalues --    0.67758   0.69055   0.70054   0.71549   0.72061
 Alpha virt. eigenvalues --    0.72695   0.72908   0.73529   0.74043   0.74932
 Alpha virt. eigenvalues --    0.75253   0.75581   0.76597   0.77329   0.78386
 Alpha virt. eigenvalues --    0.78738   0.79641   0.80514   0.81654   0.82684
 Alpha virt. eigenvalues --    0.83189   0.84773   0.86108   0.88377   0.91095
 Alpha virt. eigenvalues --    0.92172   0.93369   0.94037   0.95817   0.96530
 Alpha virt. eigenvalues --    0.97904   1.01709   1.02027   1.04559   1.05981
 Alpha virt. eigenvalues --    1.07438   1.11298   1.14009   1.15626   1.15979
 Alpha virt. eigenvalues --    1.18001   1.20004   1.22019   1.23206   1.24994
 Alpha virt. eigenvalues --    1.26013   1.26071   1.26937   1.30049   1.30585
 Alpha virt. eigenvalues --    1.31169   1.32622   1.33738   1.34932   1.35723
 Alpha virt. eigenvalues --    1.37064   1.39772   1.41969   1.43668   1.47515
 Alpha virt. eigenvalues --    1.51783   1.51831   1.54017   1.54683   1.55211
 Alpha virt. eigenvalues --    1.56009   1.56202   1.59351   1.59599   1.59846
 Alpha virt. eigenvalues --    1.60975   1.61986   1.62191   1.63168   1.63732
 Alpha virt. eigenvalues --    1.64734   1.65460   1.67205   1.68024   1.70990
 Alpha virt. eigenvalues --    1.72092   1.73199   1.73948   1.74748   1.75282
 Alpha virt. eigenvalues --    1.77819   1.78802   1.79805   1.81567   1.83408
 Alpha virt. eigenvalues --    1.84754   1.85521   1.86942   1.89300   1.90861
 Alpha virt. eigenvalues --    1.90987   1.92532   1.94021   1.96209   1.96432
 Alpha virt. eigenvalues --    1.99912   2.01760   2.06166   2.08339   2.09709
 Alpha virt. eigenvalues --    2.12420   2.12945   2.14500   2.14946   2.16226
 Alpha virt. eigenvalues --    2.18675   2.20960   2.22062   2.23507   2.26797
 Alpha virt. eigenvalues --    2.31090   2.32684   2.35806   2.39133   2.40098
 Alpha virt. eigenvalues --    2.42936   2.43883   2.44521   2.47282   2.54814
 Alpha virt. eigenvalues --    2.56223   2.56432   2.56888   2.57451   2.59250
 Alpha virt. eigenvalues --    2.61494   2.61838   2.64210   2.65211   2.67550
 Alpha virt. eigenvalues --    2.67886   2.68530   2.69096   2.69791   2.70818
 Alpha virt. eigenvalues --    2.71818   2.73613   2.74778   2.75282   2.77786
 Alpha virt. eigenvalues --    2.79799   2.83078   2.84183   2.87172   2.89684
 Alpha virt. eigenvalues --    2.92269   2.92701   2.93569   2.94158   2.95423
 Alpha virt. eigenvalues --    2.97024   2.98344   2.99866   2.99951   3.00425
 Alpha virt. eigenvalues --    3.01396   3.02495   3.04431   3.05962   3.08843
 Alpha virt. eigenvalues --    3.11617   3.17269   3.20783   3.24077   3.28208
 Alpha virt. eigenvalues --    3.37559   3.38030   3.41554   3.43393   3.43807
 Alpha virt. eigenvalues --    3.47570   3.49505   3.59724   3.64472   3.66461
 Alpha virt. eigenvalues --    3.70861   3.73625   3.80679   3.85302   3.90393
 Alpha virt. eigenvalues --    3.92122   3.92635   3.93883   3.94351   3.94954
 Alpha virt. eigenvalues --    3.98483   3.99500   4.02558   4.04278   4.14746
 Alpha virt. eigenvalues --    4.23059   4.25798   4.32848   4.42790   4.90862
 Alpha virt. eigenvalues --    4.95958   5.02197   5.08795   5.11750   5.16518
 Alpha virt. eigenvalues --    5.18319   5.31557   5.35430   5.38416   5.79382
 Alpha virt. eigenvalues --    5.83906   5.87102  23.98121  23.99835  24.04118
 Alpha virt. eigenvalues --   24.06832  24.08803  24.11725  24.15871  24.17287
 Alpha virt. eigenvalues --   35.81798  35.82934  50.21526  50.24961  50.27457
          Condensed to atoms (all electrons):
               1          2          3          4          5          6
     1  N    7.038940   0.300574   0.262480  -0.172961  -0.736080   0.102056
     2  C    0.300574   5.099671  -0.056736  -0.028409  -0.304869   0.019644
     3  C    0.262480  -0.056736   7.077084   0.506177  -2.140489  -0.137176
     4  O   -0.172961  -0.028409   0.506177   8.271436  -0.119205   0.032917
     5  C   -0.736080  -0.304869  -2.140489  -0.119205  11.995116  -0.671293
     6  N    0.102056   0.019644  -0.137176   0.032917  -0.671293   7.532457
     7  C    0.042186   0.012953   0.719911   0.013395  -1.274739  -0.150295
     8  C    0.137836   0.024129  -0.283428  -0.004605  -0.872716   0.362985
     9  C   -0.006112  -0.002497  -0.213483   0.009807   0.124022  -0.282335
    10  O   -0.000511  -0.000495   0.016415  -0.000022   0.088346  -0.172802
    11  C   -0.001357  -0.000260   0.009698  -0.001398   0.018128   0.014311
    12  O    0.000323   0.000210   0.005576  -0.000746   0.019882   0.027432
    13  C    0.000037   0.000074   0.005779   0.000045  -0.051640  -0.011536
    14  H    0.349925  -0.028213  -0.017871   0.001559   0.042757  -0.001024
    15  H   -0.028441   0.425801  -0.023032   0.000572   0.005631  -0.000208
    16  H   -0.056160   0.402046   0.023013   0.003016   0.013765  -0.000124
    17  H   -0.040561   0.423856  -0.002803   0.000955  -0.007155   0.000202
    18  H    0.003539   0.001396  -0.008424   0.002563   0.368187  -0.012357
    19  H    0.002468   0.001547   0.011449   0.016562  -0.009088   0.314666
    20  H    0.008527  -0.000276   0.012789  -0.000943  -0.118734   0.023576
    21  H   -0.002944   0.000294   0.029454  -0.000776   0.010763  -0.038854
    22  H   -0.002864  -0.001600  -0.035980   0.002242   0.071541  -0.016550
    23  H   -0.000004  -0.000003  -0.002112   0.000005   0.004385  -0.001624
    24  H    0.000012   0.000007   0.002549  -0.000004  -0.002643  -0.001344
    25  H    0.000000   0.000000   0.000035   0.000000   0.000119   0.000093
    26  H    0.000000   0.000000   0.000033  -0.000000   0.000151   0.000006
    27  H   -0.000000  -0.000001  -0.000195   0.000001   0.000314   0.000071
               7          8          9         10         11         12
     1  N    0.042186   0.137836  -0.006112  -0.000511  -0.001357   0.000323
     2  C    0.012953   0.024129  -0.002497  -0.000495  -0.000260   0.000210
     3  C    0.719911  -0.283428  -0.213483   0.016415   0.009698   0.005576
     4  O    0.013395  -0.004605   0.009807  -0.000022  -0.001398  -0.000746
     5  C   -1.274739  -0.872716   0.124022   0.088346   0.018128   0.019882
     6  N   -0.150295   0.362985  -0.282335  -0.172802   0.014311   0.027432
     7  C   10.538428  -0.169084  -3.991424   0.293372   0.664752   0.060104
     8  C   -0.169084   6.192383  -0.050376  -0.086161  -0.013218  -0.002738
     9  C   -3.991424  -0.050376  10.159279   0.107019  -1.402560   0.246764
    10  O    0.293372  -0.086161   0.107019   8.233742  -0.024861  -0.003382
    11  C    0.664752  -0.013218  -1.402560  -0.024861   6.722885  -0.003149
    12  O    0.060104  -0.002738   0.246764  -0.003382  -0.003149   8.082015
    13  C   -0.575576   0.003587   0.904329   0.026882  -0.557156  -0.098241
    14  H   -0.000797  -0.012003  -0.000039   0.000018   0.000009  -0.000003
    15  H   -0.002366   0.001567   0.000136   0.000003  -0.000007   0.000000
    16  H    0.000012  -0.001967   0.000049   0.000001   0.000000  -0.000000
    17  H    0.001429  -0.000549  -0.000143  -0.000002   0.000001   0.000000
    18  H    0.008134  -0.011341  -0.011278   0.002502  -0.003012   0.000191
    19  H   -0.024421  -0.018966   0.020212   0.002793   0.007391   0.025426
    20  H    0.020074   0.431881  -0.001125  -0.000042   0.000435   0.000022
    21  H    0.022008   0.340298   0.015821   0.000741   0.000608  -0.000161
    22  H   -0.022299   0.387221  -0.006536   0.000221  -0.000750   0.000084
    23  H    0.000269  -0.000256  -0.037300  -0.003514   0.434633   0.002721
    24  H    0.065784   0.000278  -0.115725  -0.004084   0.455215   0.004178
    25  H    0.012167   0.000014  -0.043767  -0.000088   0.020086  -0.000162
    26  H    0.022947  -0.000006  -0.004830  -0.000088  -0.025170   0.002561
    27  H    0.003995   0.000005  -0.037122  -0.000070   0.016451  -0.000365
              13         14         15         16         17         18
     1  N    0.000037   0.349925  -0.028441  -0.056160  -0.040561   0.003539
     2  C    0.000074  -0.028213   0.425801   0.402046   0.423856   0.001396
     3  C    0.005779  -0.017871  -0.023032   0.023013  -0.002803  -0.008424
     4  O    0.000045   0.001559   0.000572   0.003016   0.000955   0.002563
     5  C   -0.051640   0.042757   0.005631   0.013765  -0.007155   0.368187
     6  N   -0.011536  -0.001024  -0.000208  -0.000124   0.000202  -0.012357
     7  C   -0.575576  -0.000797  -0.002366   0.000012   0.001429   0.008134
     8  C    0.003587  -0.012003   0.001567  -0.001967  -0.000549  -0.011341
     9  C    0.904329  -0.000039   0.000136   0.000049  -0.000143  -0.011278
    10  O    0.026882   0.000018   0.000003   0.000001  -0.000002   0.002502
    11  C   -0.557156   0.000009  -0.000007   0.000000   0.000001  -0.003012
    12  O   -0.098241  -0.000003   0.000000  -0.000000   0.000000   0.000191
    13  C    5.951049   0.000001  -0.000001  -0.000000   0.000000  -0.000144
    14  H    0.000001   0.309828   0.002184  -0.003667   0.002455   0.000545
    15  H   -0.000001   0.002184   0.490144  -0.019978  -0.035204  -0.000129
    16  H   -0.000000  -0.003667  -0.019978   0.480429  -0.018514  -0.000046
    17  H    0.000000   0.002455  -0.035204  -0.018514   0.491646   0.000054
    18  H   -0.000144   0.000545  -0.000129  -0.000046   0.000054   0.434503
    19  H    0.000105  -0.000064   0.000032  -0.000001  -0.000045   0.001305
    20  H    0.000020  -0.000748  -0.000011  -0.000011   0.000054  -0.004205
    21  H    0.000248   0.000047   0.000001   0.000001  -0.000002  -0.005997
    22  H   -0.000153   0.000094  -0.000013  -0.000005   0.000049   0.005089
    23  H   -0.054958   0.000000  -0.000000  -0.000000  -0.000000   0.000001
    24  H   -0.060884  -0.000000   0.000000   0.000000   0.000000   0.000008
    25  H    0.379959  -0.000000   0.000000   0.000000   0.000000  -0.000000
    26  H    0.386113  -0.000000   0.000000  -0.000000  -0.000000   0.000000
    27  H    0.385384   0.000000  -0.000000  -0.000000  -0.000000   0.000000
              19         20         21         22         23         24
     1  N    0.002468   0.008527  -0.002944  -0.002864  -0.000004   0.000012
     2  C    0.001547  -0.000276   0.000294  -0.001600  -0.000003   0.000007
     3  C    0.011449   0.012789   0.029454  -0.035980  -0.002112   0.002549
     4  O    0.016562  -0.000943  -0.000776   0.002242   0.000005  -0.000004
     5  C   -0.009088  -0.118734   0.010763   0.071541   0.004385  -0.002643
     6  N    0.314666   0.023576  -0.038854  -0.016550  -0.001624  -0.001344
     7  C   -0.024421   0.020074   0.022008  -0.022299   0.000269   0.065784
     8  C   -0.018966   0.431881   0.340298   0.387221  -0.000256   0.000278
     9  C    0.020212  -0.001125   0.015821  -0.006536  -0.037300  -0.115725
    10  O    0.002793  -0.000042   0.000741   0.000221  -0.003514  -0.004084
    11  C    0.007391   0.000435   0.000608  -0.000750   0.434633   0.455215
    12  O    0.025426   0.000022  -0.000161   0.000084   0.002721   0.004178
    13  C    0.000105   0.000020   0.000248  -0.000153  -0.054958  -0.060884
    14  H   -0.000064  -0.000748   0.000047   0.000094   0.000000  -0.000000
    15  H    0.000032  -0.000011   0.000001  -0.000013  -0.000000   0.000000
    16  H   -0.000001  -0.000011   0.000001  -0.000005  -0.000000   0.000000
    17  H   -0.000045   0.000054  -0.000002   0.000049  -0.000000   0.000000
    18  H    0.001305  -0.004205  -0.005997   0.005089   0.000001   0.000008
    19  H    0.307283  -0.000237   0.000490   0.001081  -0.000040  -0.000040
    20  H   -0.000237   0.484170  -0.019425  -0.023311  -0.000000   0.000000
    21  H    0.000490  -0.019425   0.481550  -0.022573  -0.000037   0.000009
    22  H    0.001081  -0.023311  -0.022573   0.469065  -0.000000  -0.000000
    23  H   -0.000040  -0.000000  -0.000037  -0.000000   0.464473  -0.025029
    24  H   -0.000040   0.000000   0.000009  -0.000000  -0.025029   0.463440
    25  H    0.000001  -0.000000   0.000000   0.000000  -0.006522   0.006211
    26  H   -0.000003   0.000000  -0.000000   0.000000  -0.004370  -0.004554
    27  H    0.000000  -0.000000  -0.000000  -0.000000   0.006220  -0.006363
              25         26         27
     1  N    0.000000   0.000000  -0.000000
     2  C    0.000000   0.000000  -0.000001
     3  C    0.000035   0.000033  -0.000195
     4  O    0.000000  -0.000000   0.000001
     5  C    0.000119   0.000151   0.000314
     6  N    0.000093   0.000006   0.000071
     7  C    0.012167   0.022947   0.003995
     8  C    0.000014  -0.000006   0.000005
     9  C   -0.043767  -0.004830  -0.037122
    10  O   -0.000088  -0.000088  -0.000070
    11  C    0.020086  -0.025170   0.016451
    12  O   -0.000162   0.002561  -0.000365
    13  C    0.379959   0.386113   0.385384
    14  H   -0.000000  -0.000000   0.000000
    15  H    0.000000   0.000000  -0.000000
    16  H    0.000000  -0.000000  -0.000000
    17  H    0.000000  -0.000000  -0.000000
    18  H   -0.000000   0.000000   0.000000
    19  H    0.000001  -0.000003   0.000000
    20  H   -0.000000   0.000000  -0.000000
    21  H    0.000000  -0.000000  -0.000000
    22  H    0.000000   0.000000  -0.000000
    23  H   -0.006522  -0.004370   0.006220
    24  H    0.006211  -0.004554  -0.006363
    25  H    0.513210  -0.022137  -0.030254
    26  H   -0.022137   0.495233  -0.021986
    27  H   -0.030254  -0.021986   0.512765
 Mulliken charges:
               1
     1  N   -0.200906
     2  C   -0.288842
     3  C    0.239288
     4  O   -0.532184
     5  C   -0.454457
     6  N    0.067107
     7  C   -0.290919
     8  C   -0.354771
     9  C    0.619214
    10  O   -0.475934
    11  C   -0.331706
    12  O   -0.368542
    13  C   -0.633323
    14  H    0.355007
    15  H    0.183319
    16  H    0.178139
    17  H    0.184277
    18  H    0.228915
    19  H    0.340091
    20  H    0.187521
    21  H    0.188437
    22  H    0.195947
    23  H    0.223062
    24  H    0.222979
    25  H    0.171034
    26  H    0.176100
    27  H    0.171149
 Sum of Mulliken charges =  -0.00000
 Mulliken charges with hydrogens summed into heavy atoms:
               1
     1  N    0.154101
     2  C    0.256893
     3  C    0.239288
     4  O   -0.532184
     5  C   -0.225542
     6  N    0.407197
     7  C   -0.290919
     8  C    0.217134
     9  C    0.619214
    10  O   -0.475934
    11  C    0.114334
    12  O   -0.368542
    13  C   -0.115039
 Electronic spatial extent (au):  <R**2>=           3678.2156
 Charge=              0.0000 electrons
 Dipole moment (field-independent basis, Debye):
    X=              4.0923    Y=              3.7951    Z=             -2.2794  Tot=              6.0287
 Quadrupole moment (field-independent basis, Debye-Ang):
   XX=            -48.0037   YY=            -91.7963   ZZ=            -77.3450
   XY=              8.5793   XZ=             -7.2964   YZ=              7.0122
 Traceless Quadrupole moment (field-independent basis, Debye-Ang):
   XX=             24.3779   YY=            -19.4146   ZZ=             -4.9633
   XY=              8.5793   XZ=             -7.2964   YZ=              7.0122
 Octapole moment (field-independent basis, Debye-Ang**2):
  XXX=             72.8779  YYY=              4.0966  ZZZ=             -2.0790  XYY=             19.7987
  XXY=             30.8657  XXZ=            -42.9521  XZZ=              6.4532  YZZ=              1.9024
  YYZ=             -2.6371  XYZ=             -6.3710
 Hexadecapole moment (field-independent basis, Debye-Ang**3):
 XXXX=          -3225.9608 YYYY=           -632.9770 ZZZZ=           -260.0181 XXXY=            -24.8398
 XXXZ=           -107.2572 YYYX=             29.2713 YYYZ=             22.7721 ZZZX=             -9.4790
 ZZZY=             -5.5890 XXYY=           -793.8292 XXZZ=           -676.9172 YYZZ=           -145.6009
 XXYZ=             18.6021 YYXZ=            -22.7798 ZZXY=             10.3811
 N-N= 8.121080194769D+02 E-N=-3.139830569386D+03  KE= 6.461624416608D+02
 1\1\GINC-SILICON\FOpt\RM052X\6-311+G(d,p)\C8H14N2O3\TYDINGCW\22-Dec-20
 23\0\\# opt M052X/6-311+G(d,p) scrf=smd\\Title Card Required\\0,1\N,-3
 .4378119312,1.2429748205,0.9665293902\C,-4.534631714,0.4205374184,1.45
 486791\C,-2.3414150491,0.701167599,0.4462711073\O,-2.1542413807,-0.520
 7799494,0.3881837367\C,-1.3282456103,1.6741516435,-0.1332382551\N,-0.0
 200999527,1.052412544,-0.0439681067\C,1.1026262432,1.7578674841,-0.066
 8007396\C,-1.6990138119,1.9960102295,-1.5828275563\C,2.3831544974,0.90
 06820848,0.0014832144\O,1.1715460186,2.9854061602,-0.1285209464\C,3.67
 18468299,1.6478868584,0.021533571\O,2.2847806889,-0.3055144503,0.03251
 64881\C,4.8841488821,0.7367355402,0.0937904454\H,-3.5232966611,2.24732
 55547,0.9762346711\H,-4.1997228028,-0.2108873467,2.2756370692\H,-5.321
 4712213,1.0790096701,1.8077871772\H,-4.9230983761,-0.2101765751,0.6571
 023581\H,-1.3145732644,2.5883352713,0.4577488568\H,0.0354802979,0.0423
 601235,-0.0143995395\H,-2.6587072532,2.5098211173,-1.6192049766\H,-0.9
 376899883,2.6426653057,-2.0159776203\H,-1.7611777351,1.0765784924,-2.1
 647739671\H,3.6864400283,2.280725428,-0.8700671146\H,3.6261688691,2.33
 9156228,0.8676411422\H,4.9218998467,0.0705132308,-0.7673770536\H,5.794
 8896558,1.3329082986,0.106755044\H,4.8597148942,0.1272272187,0.9964736
 94\\Version=ES64L-G16RevB.01\State=1-A\HF=-648.6212926\RMSD=4.140e-09\
 RMSF=3.867e-06\Dipole=-1.6657297,1.6587013,0.316057\Quadrupole=18.2166
 651,-17.156731,-1.0599341,-6.3727893,-4.0157179,1.456354\PG=C01 [X(C8H
 14N2O3)]\\@


 WISDOM IS KNOWING WHAT TO DO,
 SKILL IS KNOWING HOW TO DO IT,
 AND VIRTUE IS NOT DOING IT.
 Job cpu time:       0 days  9 hours 16 minutes 10.1 seconds.
 Elapsed time:       0 days  0 hours 46 minutes 38.9 seconds.
 File lengths (MBytes):  RWF=    205 Int=      0 D2E=      0 Chk=     15 Scr=      1
 Normal termination of Gaussian 16 at Fri Dec 22 23:20:15 2023.
